X,Y,u_x,u_y,,X1,Y1,sigma_xx,sigma_yy,sigma_xy
0,0.3,0,-0.12704619,,0.014147861,0.397955014,-1.077618563,-2.602669525,0.000428359
0,0,0,0,,0.014147861,0.495800028,-1.02958026,-2.507660536,0.00039129
0,0.15,0,-0.06504786,,0.01445821,0.79666,-0.886617446,-2.213802636,0.000270366
0,0.225,0,-0.096430048,,0.01445821,0.698814986,-0.932311325,-2.309668927,0.000314178
0,0.075,0,-0.032903375,,0.014799165,1.097334709,-0.751041689,-1.917317534,0.0001353
0,0.3,0,-0.12704619,,0.014799165,0.999489694,-0.794366959,-2.014115389,0.000181475
0,0.9,0,-0.343869892,,0.014907221,1.30012142,-0.663591178,-1.7157408,4.23221E-05
0,0.6,0,-0.241766025,,0.014907221,1.397966434,-0.6224689,-1.618030746,-9.38581E-07
0,0.75,0,-0.294414593,,0.014930915,1.698530455,-0.500013523,-1.316220211,-0.000118398
0,0.825,0,-0.319543928,,0.014930915,1.60068544,-0.539287861,-1.414727676,-8.32339E-05
0,0.675,0,-0.268486954,,0.014933939,1.901282928,-0.420123644,-1.111432608,-0.000178238
0,0.6,0,-0.241766025,,0.014933939,1.999127943,-0.382147256,-1.012346251,-0.000199824
0,0.3,0,-0.12704619,,0.014964477,2.299939674,-0.266705842,-0.707123363,-0.000228411
0,0.45,0,-0.185963919,,0.014964477,2.202094659,-0.304133557,-0.806458082,-0.00022606
0,0.525,0,-0.214256738,,0.015108628,2.601512499,-0.150779597,-0.401237375,-0.000190845
0,0.375,0,-0.156892239,,0.015108628,2.503667485,-0.188603511,-0.500382305,-0.000210096
0,1.5,0,-0.508952317,,0.015634006,2.906894265,-0.029996552,-0.093468127,-5.23885E-05
0,1.2,0,-0.433038287,,0.015634006,2.80904925,-0.069103113,-0.191583833,-9.49521E-05
0,1.35,0,-0.47267121,,0.01617458,0.19095075,-1.181591944,-2.802890954,0.000566927
0,1.425,0,-0.491233001,,0.01617458,0.093105735,-1.23176793,-2.897214907,0.000596152
0,1.275,0,-0.453271421,,0.016795066,0.324683331,-1.114065872,-2.673654149,0.000539239
0,2.7,0,-0.675376858,,0.016795066,0.567903218,-0.994656332,-2.437477915,0.000430328
0,2.4,0,-0.654609758,,0.017163484,0.625704212,-0.966958793,-2.381109214,0.000410785
0,2.55,0,-0.666728658,,0.017163484,0.868924099,-0.853367722,-2.142807131,0.00028188
0,2.625,0,-0.671485439,,0.017568235,1.169725052,-0.719466337,-1.84550573,0.000120506
0,2.475,0,-0.661104033,,0.017568235,0.926505165,-0.827177693,-2.086119062,0.000256407
0,2.1,0,-0.619920969,,0.017696509,1.47047498,-0.592415172,-1.545442264,-3.75211E-05
0,1.8,0,-0.571322883,,0.017696509,1.227255093,-0.694658439,-1.788318736,8.97214E-05
0,1.95,0,-0.597354584,,0.017724637,1.771144534,-0.471187501,-1.242972011,-0.000168543
0,2.025,0,-0.609071983,,0.017724637,1.527924647,-0.568846227,-1.48782563,-6.5292E-05
0,1.875,0,-0.58477075,,0.017728227,1.828633931,-0.44854185,-1.184902815,-0.000188745
0,2.4,0,-0.654609758,,0.017728227,2.071853818,-0.354099465,-0.938616003,-0.000251851
0,2.1,0,-0.619920969,,0.017764479,2.372817432,-0.23882417,-0.63313916,-0.000267522
0,2.25,0,-0.639008078,,0.017764479,2.129597545,-0.331913667,-0.880037094,-0.000261125
0,2.325,0,-0.647244648,,0.017935602,2.674684548,-0.122252077,-0.327198321,-0.000205874
0,2.175,0,-0.629900014,,0.017935602,2.431464661,-0.216350929,-0.573619091,-0.000263059
0,1.2,0,-0.433038287,,0.018559283,2.737853409,-0.097420074,-0.263428055,-0.000157389
0,0.9,0,-0.343869892,,0.018559283,2.981073296,-0.000345164,-0.018922345,-5.00941E-05
0,1.05,0,-0.390091309,,0.019201004,0.018926704,-1.27020593,-2.968614644,0.000729596
0,1.125,0,-0.41197661,,0.019201004,0.262146591,-1.145484566,-2.734136708,0.000644148
0,0.975,0,-0.367387384,,0.03395855,0.59360743,-0.982293844,-2.412413715,0.000844768
0,1.8,0,-0.571322883,,0.03473172,0.895429264,-0.841264766,-2.116718589,0.000541232
0,1.5,0,-0.508952317,,0.035264745,1.196980145,-0.707668179,-1.818420273,0.000211914
0,1.65,0,-0.541846623,,0.035421146,1.498399627,-0.580920329,-1.517443938,-0.000102259
0,1.725,0,-0.557013787,,0.035452863,1.799778465,-0.459880778,-1.214055552,-0.000357615
0,1.575,0,-0.525824874,,0.035492706,2.101451363,-0.342715993,-0.90859341,-0.000513754
0,0.6,0,-0.241766025,,0.035700081,2.404282093,-0.226776288,-0.601203921,-0.000531041
0,3,0,-0.6823681,,0.035996071,0.286829922,-1.13303962,-2.710263094,0.001187267
0,2.7,0,-0.675376858,,0.036494885,2.712537957,-0.10743947,-0.288999255,-0.000359221
0,2.85,0,-0.680579233,,0.066363177,0.397532468,-1.077773348,-2.603028516,0.002010465
0,2.925,0,-0.681899762,,0.066363177,0.473174397,-1.040565671,-2.529604685,0.00187761
0,2.775,0,-0.678407261,,0.067818924,0.777208255,-0.895571064,-2.23284324,0.001310314
0,0.9,0,-0.343869892,,0.067818924,0.701566325,-0.93094863,-2.306933521,0.001468598
0,1.2,0,-0.433038287,,0.069418238,1.080373101,-0.758425157,-1.934085969,0.00067299
0,1.5,0,-0.508952317,,0.069418238,1.004731172,-0.791953268,-2.008901758,0.000840287
0,1.8,0,-0.571322883,,0.069925093,1.307694398,-0.660313822,-1.708162129,0.000183192
0,2.1,0,-0.619920969,,0.069925093,1.383336327,-0.628507185,-1.632634822,2.63368E-05
0,2.4,0,-0.654609758,,0.070036234,1.68598197,-0.504967364,-1.328852082,-0.000534224
0,2.7,0,-0.675376858,,0.070036234,1.610340041,-0.535330357,-1.40500151,-0.000406857
0.066553054,0.322811526,0.000383168,-0.1362031,,0.070050419,1.913142669,-0.415465628,-1.099422032,-0.000849305
0.066553054,0.322811526,0.000383168,-0.1362031,,0.070050419,1.988784599,-0.386116388,-1.022820926,-0.000927036
0.066553054,0.547811526,0.000589716,-0.222703249,,0.070193666,2.216950244,-0.298440276,-0.791375694,-0.001064098
0.066553054,0.472811526,0.000526887,-0.194648565,,0.070193666,2.292592173,-0.26951676,-0.714582272,-0.001071247
0.066553054,0.397811526,0.000457977,-0.165813663,,0.070869831,2.524327873,-0.180671191,-0.479437482,-0.000969616
0.066553054,0.547811526,0.000589716,-0.222703249,,0.070869831,2.599969803,-0.151422763,-0.402808782,-0.0008832
0.068012967,0.626856925,0.00066344,-0.251421304,,0.073334213,2.849572047,-0.053157159,-0.150904739,-0.000356545
0.068012967,0.851856925,0.000796809,-0.328342739,,0.073334213,2.925213976,-0.022130889,-0.074729637,-0.000202176
0.068012967,0.776856925,0.000758927,-0.303500656,,0.075869879,0.150427953,-1.202245572,-2.841900676,0.002720583
0.068012967,0.701856925,0.000714459,-0.277858496,,0.075869879,0.074786024,-1.24118566,-2.91477671,0.002820509
0.068012967,0.626856925,0.00066344,-0.251421304,,0.082619614,0.519269202,-1.01807544,-2.48475851,0.002232538
0.068012967,0.851856925,0.000796809,-0.328342739,,0.082619614,0.344261967,-1.104207799,-2.654617887,0.00261403
0.069616857,0.930030827,0.000848847,-0.353378807,,0.084431964,0.8242912,-0.873745713,-2.186613216,0.001507094
0.069616857,1.155030827,0.000904121,-0.420503855,,0.084431964,0.649283965,-0.955634534,-2.358014894,0.001962551
0.069616857,1.080030827,0.000892271,-0.398947763,,0.086423048,1.128231312,-0.737402133,-1.886638057,0.000707186
0.069616857,1.005030827,0.00087388,-0.376571065,,0.086423048,0.953224078,-0.815001812,-2.059719995,0.00118899
0.069616857,0.930030827,0.000848847,-0.353378807,,0.087054062,1.431920415,-0.608248281,-1.584023144,-8.86784E-05
0.069616857,1.155030827,0.000904121,-0.420503855,,0.087054062,1.25691318,-0.681854744,-1.758753754,0.000363219
0.070125161,1.233002531,0.000916298,-0.44203862,,0.087192429,1.560206905,-0.555597505,-1.455382383,-0.000394224
0.070125161,1.458002531,0.000895233,-0.499129053,,0.087192429,1.735214139,-0.485339039,-1.279210428,-0.000761162
0.070125161,1.383002531,0.000908156,-0.480937352,,0.087210089,1.86369607,-0.434735449,-1.149441417,-0.000983644
0.070125161,1.308002531,0.000915259,-0.461905679,,0.087210089,2.038703305,-0.366827015,-0.972223563,-0.001207334
0.070125161,1.233002531,0.000916298,-0.44203862,,0.087388426,2.168436354,-0.317002757,-0.840618092,-0.001305641
0.070125161,1.458002531,0.000895233,-0.499129053,,0.087388426,2.343443589,-0.250077722,-0.662957041,-0.001325271
0.07023662,1.535655744,0.000877412,-0.517074531,,0.088230225,2.477621221,-0.198666656,-0.526797307,-0.001255942
0.07023662,1.760655744,0.000791486,-0.563919037,,0.088230225,2.652628456,-0.130968036,-0.349527488,-0.001004525
0.07023662,1.685655744,0.000824734,-0.549159264,,0.091298286,2.80904925,-0.069331565,-0.191550207,-0.000652956
0.07023662,1.610655744,0.000853507,-0.533543211,,0.091298286,2.984056485,-1.54264E-06,-0.016091882,-0.000157556
0.07023662,1.535655744,0.000877412,-0.517074531,,0.094455094,0.19095075,-1.18150548,-2.802773344,0.003313209
0.07023662,1.760655744,0.000791486,-0.563919037,,0.094455094,0.015943515,-1.27169976,-2.971355332,0.003595438
0.070250846,1.838466391,0.000752873,-0.578323353,,0.097077824,0.540921967,-1.007546489,-2.463655889,0.00256451
0.070250846,2.063466391,0.000621229,-0.614740666,,0.098579825,0.622246214,-0.96846894,-2.384384949,0.002371276
0.070250846,1.988466391,0.000667803,-0.603468354,,0.098794194,0.312374937,-1.12011602,-2.685445157,0.003202156
0.070250846,1.913466391,0.000711866,-0.591328516,,0.099231129,0.846618674,-0.863434157,-2.164652612,0.001702101
0.070250846,1.838466391,0.000752873,-0.578323353,,0.100881258,0.927046298,-0.826775699,-2.085502856,0.00147268
0.070250846,2.063466391,0.000621229,-0.614740666,,0.101330269,1.151190512,-0.727355362,-1.863840052,0.000756617
0.070394503,2.14228486,0.000571383,-0.625650047,,0.101853228,1.23141011,-0.692721057,-1.78412199,0.000505479
0.070394503,2.36728486,0.000420317,-0.651500077,,0.101984977,1.455443635,-0.598475161,-1.560455793,-0.000170856
0.070394503,2.29228486,0.000470833,-0.643754913,,0.10209965,1.535335559,-0.565686642,-1.480345664,-0.000394248
0.070394503,2.21728486,0.000521419,-0.635138165,,0.102126368,1.759334847,-0.47575146,-1.254866136,-0.000943598
0.070394503,2.14228486,0.000571383,-0.625650047,,0.102141004,1.839388745,-0.444227302,-1.174010757,-0.001106445
0.070394503,2.36728486,0.000420317,-0.651500077,,0.102174566,2.063635744,-0.357210794,-0.946940189,-0.001441273
0.071072602,2.449683598,0.000369287,-0.659004855,,0.102322365,2.144726518,-0.326076883,-0.864678021,-0.001513724
0.071072602,2.674683598,0.000232306,-0.67415524,,0.102497054,2.369948853,-0.239946073,-0.636051598,-0.001543298
0.071072602,2.599683598,0.000274886,-0.669972065,,0.103194703,2.454723115,-0.207473057,-0.550024966,-0.001492779
0.071072602,2.524683598,0.000320859,-0.664922711,,0.103864231,2.684515486,-0.118540406,-0.317278355,-0.001099067
0.071072602,2.449683598,0.000369287,-0.659004855,,0.106406914,2.78772397,-0.077867319,-0.213070351,-0.00083535
0.071072602,2.674683598,0.000232306,-0.67415524,,0.108602955,0.211743543,-1.170891024,-2.782667189,0.003764169
0.073544035,2.775,0.000188146,-0.678400915,,0.133485862,0.420539239,-1.066234354,-2.580551755,0.003968569
0.073544035,3,0.000104444,-0.682356176,,0.134182101,0.574740723,-0.991109435,-2.430622173,0.003416972
0.073544035,2.925,0.000129984,-0.681890106,,0.136414018,0.728653121,-0.918011059,-2.280285029,0.002845228
0.073544035,2.85,0.000156149,-0.680571559,,0.137237163,0.881939427,-0.847130173,-2.129840996,0.002203216
0.073544035,2.775,0.000188146,-0.678400915,,0.139343331,1.188067499,-0.71123137,-1.827158985,0.000882272
0.076086957,0.225,0.000316842,-0.096427553,,0.13963095,1.035019034,-0.778239807,-1.97885422,0.001560178
0.076086957,0.15,0.000216807,-0.065046107,,0.139961327,1.493676368,-0.582607684,-1.522100383,-0.000380025
0.076086957,0.225,0.000316842,-0.096427553,,0.140086653,1.799124639,-0.459955438,-1.214671914,-0.001406227
0.076086957,0,0,0,,0.140244085,2.105734842,-0.340993122,-0.904231957,-0.002031619
0.076086957,0.075,0.000111055,-0.032902447,,0.140650459,1.340979399,-0.646046774,-1.674867392,0.000233382
0.133106108,0.345623052,0.000813807,-0.145282988,,0.140874014,1.646300964,-0.520676088,-1.368766613,-0.000938104
0.133106108,0.345623052,0.000813807,-0.145282988,,0.140902546,1.951938296,-0.400279872,-1.060121622,-0.001788778
0.133106108,0.495623052,0.001094255,-0.20325388,,0.141063496,2.416920047,-0.222000005,-0.588381852,-0.002083536
0.133106108,0.420623052,0.000959996,-0.174656868,,0.141190679,2.259597022,-0.282122396,-0.748076197,-0.00215111
0.133106108,0.495623052,0.001094255,-0.20325388,,0.142233056,0.247960421,-1.152433682,-2.747582208,0.004822472
0.13456602,0.574668451,0.001235907,-0.232547093,,0.142550747,2.574436717,-0.161442116,-0.428668887,-0.001840711
0.136025933,0.65371385,0.00136613,-0.260966586,,0.144204043,2.74954185,-0.093129505,-0.251600974,-0.00131064
0.136025933,0.80371385,0.001547842,-0.312474676,,0.147507716,2.925213976,-0.022766473,-0.074788492,-0.000343447
0.136025933,0.72871385,0.001463559,-0.287118983,,0.152608068,0.074786024,-1.241044497,-2.914520669,0.005680852
0.136025933,0.65371385,0.00136613,-0.260966586,,0.16944474,0.374021888,-1.08912104,-2.625519807,0.005244617
0.136025933,0.80371385,0.001547842,-0.312474676,,0.16944474,0.451184109,-1.051010969,-2.550679748,0.004904385
0.137629823,0.881887752,0.001640813,-0.338049468,,0.173161693,0.684321515,-0.938693865,-2.323542306,0.003850981
0.139233713,0.960061653,0.001720878,-0.362747387,,0.173161693,0.761483735,-0.902492702,-2.248015777,0.003440548
0.139233713,1.110061653,0.001797161,-0.407662089,,0.177245213,0.9924023,-0.797036335,-2.020866392,0.002226651
0.139233713,1.035061653,0.001765631,-0.38561348,,0.177245213,1.06956452,-0.76276517,-1.944590165,0.001790542
0.139233713,0.960061653,0.001720878,-0.362747387,,0.178539361,1.377130509,-0.63070662,-1.638697175,0.000110998
0.139233713,1.110061653,0.001797161,-0.407662089,,0.178539361,1.299968288,-0.663177549,-1.715711519,0.000521036
0.139742017,1.188033358,0.001822815,-0.429712056,,0.178823138,1.606723395,-0.536450752,-1.408541158,-0.001011878
0.140250322,1.266005062,0.001834803,-0.450867486,,0.178823138,1.683885615,-0.505490759,-1.330880154,-0.001345208
0.140250322,1.416005062,0.00180788,-0.489030506,,0.178859356,1.991041551,-0.385064784,-1.020496833,-0.002364693
0.140250322,1.341005062,0.001827309,-0.470367675,,0.178859356,1.913879331,-0.414961027,-1.098628671,-0.002162098
0.140250322,1.266005062,0.001834803,-0.450867486,,0.179225108,2.223601191,-0.295856019,-0.784612475,-0.002714926
0.140250322,1.416005062,0.00180788,-0.489030506,,0.179225108,2.300763411,-0.266405903,-0.706281752,-0.002729164
0.140361781,1.493658274,0.001777157,-0.507466394,,0.180951556,2.542438453,-0.173889708,-0.461096454,-0.002423944
0.140473241,1.571311487,0.00173478,-0.524995,,0.180951556,2.619600673,-0.144067517,-0.382947615,-0.002186863
0.140473241,1.721311487,0.001620166,-0.556268949,,0.18390295,0.472836874,-1.040330188,-2.529590863,0.00521728
0.140473241,1.646311487,0.001682166,-0.541059165,,0.185619321,0.342134858,-1.104931868,-2.656330569,0.005894926
0.140473241,1.571311487,0.00173478,-0.524995,,0.187243849,2.906894265,-0.030451954,-0.093220389,-0.000676703
0.140473241,1.721311487,0.001620166,-0.556268949,,0.187243849,2.984056485,-2.79789E-09,-0.015867266,-6.66295E-06
0.140487466,1.799122135,0.001546955,-0.571141948,,0.187309554,0.657283764,-0.951417062,-2.349911138,0.004320921
0.140501692,1.876932782,0.001465502,-0.585087981,,0.187960858,0.78381121,-0.892025309,-2.226076671,0.003606128
0.140501692,2.026932782,0.001289066,-0.609345412,,0.191703423,0.966224521,-0.808686147,-2.04665677,0.002571112
0.140501692,1.951932782,0.001380073,-0.597649973,,0.192152433,1.09252372,-0.752572014,-1.921817937,0.001803359
0.140501692,1.876932782,0.001465502,-0.585087981,,0.193338526,1.274465218,-0.673919734,-1.741093557,0.000716674
0.140501692,2.026932782,0.001289066,-0.609345412,,0.193470276,1.400653729,-0.620810754,-1.615156042,-9.7753E-06
0.140645349,2.105751251,0.001189867,-0.620700235,,0.193718152,0.093105735,-1.231454478,-2.896676129,0.007160607
0.140789005,2.18456972,0.001086936,-0.631094057,,0.193718152,0.015943515,-1.271503277,-2.97092283,0.007389945
0.140789005,2.33456972,0.000884421,-0.648216275,,0.193730358,1.581852049,-0.546431003,-1.433520764,-0.000971438
0.140789005,2.25956972,0.000985922,-0.640091003,,0.193757077,1.708006323,-0.495816529,-1.306558044,-0.001562419
0.140789005,2.18456972,0.001086936,-0.631094057,,0.193790271,1.889572006,-0.424374742,-1.123211566,-0.00226255
0.140789005,2.33456972,0.000884421,-0.648216275,,0.193823833,2.01597399,-0.375410613,-0.995226162,-0.002622549
0.141467105,2.416968458,0.000777765,-0.65613816,,0.194159046,2.199891354,-0.304900524,-0.808675877,-0.002923419
0.142145204,2.499367196,0.000673185,-0.663008942,,0.194333736,2.327268675,-0.256297374,-0.679374313,-0.002949956
0.142145204,2.649367196,0.000491087,-0.672825181,,0.195916033,2.519540347,-0.182738321,-0.484304396,-0.002686154
0.142145204,2.574367196,0.000579115,-0.668350683,,0.196585561,2.651487703,-0.13174388,-0.350690057,-0.002245294
0.142145204,2.499367196,0.000673185,-0.663008942,,0.201304786,0.522105564,-1.016224834,-2.481618201,0.005439479
0.142145204,2.649367196,0.000491087,-0.672825181,,0.202352477,2.885568984,-0.039258248,-0.114678162,-0.000896494
0.14264001,0.247811526,0.00064945,-0.105813776,,0.202777195,0.601827518,-0.977768786,-2.403968229,0.005014457
0.144616637,2.749683598,0.000392128,-0.677458059,,0.205832256,0.833384292,-0.869003149,-2.17735978,0.003632247
0.147088071,2.85,0.00030891,-0.680552483,,0.207449874,0.912227289,-0.832966555,-2.099819743,0.003142485
0.147088071,3,0.000223507,-0.682331438,,0.207866013,0.113898529,-1.22067714,-2.876571653,0.007612376
0.147088071,2.925,0.000259082,-0.681868145,,0.209355741,0.270967192,-1.140545974,-2.725042848,0.007003528
0.147088071,2.85,0.00030891,-0.680552483,,0.209556042,1.142713432,-0.730513592,-1.872019614,0.00163761
0.152173913,0,0,0,,0.210068697,1.2213525,-0.696513589,-1.793913491,0.001125071
0.152173913,0.15,0.000434165,-0.065040815,,0.210686693,1.45131944,-0.599700716,-1.564426942,-0.000311856
0.152173913,0.075,0.000222401,-0.032899652,,0.210799106,1.529637291,-0.567557482,-1.485924179,-0.000765518
0.152173913,0.15,0.000434165,-0.065040815,,0.210924433,1.759443633,-0.475348803,-1.254665999,-0.001934932
0.199659161,0.368434578,0.001291204,-0.154284897,,0.21093878,1.837920266,-0.444484526,-1.175420413,-0.002265586
0.199659161,0.368434578,0.001291204,-0.154284897,,0.211096212,2.06888854,-0.355018788,-0.941578155,-0.002978593
0.199659161,0.443434578,0.001505386,-0.183420979,,0.211241098,2.148381621,-0.324564879,-0.860944805,-0.00312076
0.199659161,0.443434578,0.001505386,-0.183420979,,0.21206051,2.383924896,-0.234691631,-0.621867762,-0.003171498
0.201119074,0.522479977,0.001724104,-0.213285978,,0.212744413,2.46702889,-0.202924051,-0.537550842,-0.003045595
0.202578987,0.601525376,0.001924894,-0.242281206,,0.21588496,2.724008764,-0.103520856,-0.277415388,-0.00211143
0.2040389,0.680570776,0.002106877,-0.270401009,,0.218377546,2.825183779,-0.063542605,-0.175419493,-0.001462799
0.2040389,0.755570776,0.00224614,-0.296267625,,0.218971245,0.172318491,-1.190632388,-2.820207244,0.007784202
0.2040389,0.680570776,0.002106877,-0.270401009,,0.232622083,0.398659555,-1.076576321,-2.601330441,0.00706812
0.2040389,0.755570776,0.00224614,-0.296267625,,0.237724898,0.71279939,-0.924870494,-2.295423607,0.005094987
0.20564279,0.833744677,0.002388964,-0.322378429,,0.243330955,1.023893089,-0.782549297,-1.989542685,0.002828448
0.20724668,0.911918579,0.002511875,-0.347616114,,0.245107625,1.334280051,-0.648265894,-1.68133028,0.000479344
0.20885057,0.99009248,0.002614448,-0.3719749,,0.245497208,1.643553793,-0.521289214,-1.371393976,-0.001596897
0.20885057,1.06509248,0.002673655,-0.394513962,,0.245546931,1.953377815,-0.399425102,-1.05859963,-0.003105768
0.20885057,0.99009248,0.002614448,-0.3719749,,0.246049052,2.266724462,-0.279383312,-0.740827986,-0.00373981
0.20885057,1.06509248,0.002673655,-0.394513962,,0.248419205,2.592585183,-0.154787787,-0.410313316,-0.003123652
0.209193064,0.270623052,0.001033024,-0.115123499,,0.249785567,0.424363767,-1.063762722,-2.576304889,0.007427425
0.209358874,1.143064184,0.002720926,-0.417077098,,0.251823087,0.360806146,-1.095261513,-2.637888849,0.007898778
0.209867178,1.221035888,0.002747398,-0.43874905,,0.253876704,0.500468074,-1.026415237,-2.502384342,0.007027568
0.210375483,1.299007592,0.002753479,-0.459524302,,0.254519965,0.680702608,-0.939876075,-2.32672287,0.005708855
0.210375483,1.374007592,0.002734199,-0.47865688,,0.255293134,0.739304555,-0.912305119,-2.269396664,0.005268568
0.210375483,1.299007592,0.002753479,-0.459524302,,0.255781307,0.603590717,-0.97656748,-2.401985926,0.00632644
0.210375483,1.374007592,0.002734199,-0.47865688,,0.257057576,2.981073296,-0.001455499,-0.018976874,-3.12829E-05
0.210486942,1.451660805,0.00269713,-0.497581869,,0.259584741,0.814707813,-0.877218502,-2.195463396,0.004748537
0.210598402,1.529314018,0.00264204,-0.515602231,,0.260494439,0.992817188,-0.796268788,-2.020162703,0.003291808
0.210709861,1.606967231,0.002569945,-0.53271327,,0.261027464,1.051148182,-0.770316654,-1.962531364,0.002812931
0.210709861,1.681967231,0.002483963,-0.548372314,,0.261677176,0.9166935,-0.830536083,-2.095202073,0.003942599
0.210709861,1.606967231,0.002569945,-0.53271327,,0.262675861,1.304005103,-0.660907706,-1.711471038,0.000758151
0.210709861,1.681967231,0.002483963,-0.548372314,,0.262832262,1.362204698,-0.636406259,-1.653407512,0.000301934
0.210724087,1.759777878,0.002380614,-0.56371334,,0.263193718,1.614028773,-0.533040094,-1.401059285,-0.001515512
0.210738312,1.837588526,0.002264095,-0.578129147,,0.263225435,1.672187724,-0.509724239,-1.342541522,-0.001887279
0.210752538,1.915399173,0.002135969,-0.591616343,,0.263271567,1.924522349,-0.410531163,-1.087791481,-0.00320989
0.210752538,1.990399173,0.002002937,-0.603734695,,0.26331141,1.98297536,-0.387927487,-1.028613629,-0.003436998
0.210752538,1.915399173,0.002135969,-0.591616343,,0.263777279,2.238578281,-0.290095519,-0.769393553,-0.003994916
0.210752538,1.990399173,0.002002937,-0.603734695,,0.263899834,0.264972638,-1.143283482,-2.730493771,0.008880843
0.210896195,2.069217642,0.001856287,-0.615534826,,0.263984654,2.298189124,-0.267402442,-0.708886308,-0.004010603
0.211039851,2.148036111,0.001703113,-0.626374574,,0.264299275,1.126477701,-0.737181956,-1.887935938,0.00221731
0.211183508,2.226854579,0.001545576,-0.63625245,,0.264962409,1.228199601,-0.693172668,-1.786937246,0.001379732
0.211183508,2.301854579,0.001392817,-0.644757934,,0.26573179,1.437337413,-0.605109076,-1.578296115,-0.000271982
0.211183508,2.226854579,0.001545576,-0.63625245,,0.2658772,1.53864381,-0.563537572,-1.476776383,-0.001013257
0.211183508,2.301854579,0.001392817,-0.644757934,,0.265945817,0.018926704,-1.269717669,-2.967551109,0.010159197
0.211861608,2.384253318,0.001229485,-0.653097076,,0.266033227,1.747581685,-0.479756521,-1.266559783,-0.002359079
0.212539707,2.466652056,0.001068518,-0.660384359,,0.266051785,1.84909347,-0.439870852,-1.164070411,-0.00289939
0.213217806,2.549050795,0.000913038,-0.666621207,,0.266183684,2.565402615,-0.165338346,-0.437845277,-0.003466063
0.213217806,2.624050795,0.000776856,-0.671387046,,0.266247782,2.059477906,-0.358494685,-0.951090426,-0.003720923
0.213217806,2.549050795,0.000913038,-0.666621207,,0.266435196,2.162304495,-0.319164126,-0.84679878,-0.003950316
0.213217806,2.624050795,0.000776856,-0.671387046,,0.266978488,2.630438592,-0.140248469,-0.372005127,-0.003163165
0.21568924,2.724367196,0.000618596,-0.676407435,,0.267455333,2.378384632,-0.23687353,-0.627489724,-0.004001452
0.218160673,2.824683598,0.000482878,-0.679886737,,0.268339981,2.485882042,-0.195849508,-0.518437258,-0.003782036
0.218726967,0.172811526,0.000714677,-0.074657155,,0.272249842,2.728649923,-0.102050006,-0.272758317,-0.002606864
0.220632106,2.925,0.000379531,-0.681834776,,0.274993177,2.955757844,-0.01178671,-0.0443578,-0.000438555
0.220632106,3,0.00032881,-0.68229645,,0.275474074,2.85952272,-0.050371517,-0.140925803,-0.001492723
0.220632106,2.925,0.000379531,-0.681834776,,0.276337765,0.137367702,-1.208292822,-2.853491042,0.010027377
0.22826087,0,0,0,,0.282076175,0.49548546,-1.028635578,-2.507051542,0.007857104
0.22826087,0.075,0.00033432,-0.032894976,,0.282740884,0.043610035,-1.256784909,-2.943676742,0.01070714
0.22826087,0.075,0.00033432,-0.032894976,,0.282752253,0.356631404,-1.097137009,-2.641722695,0.008909193
0.266212215,0.391246104,0.001814749,-0.16320787,,0.283261438,0.418448857,-1.066448515,-2.58182468,0.008478794
0.266212215,0.391246104,0.001814749,-0.16320787,,0.283980778,0.598608103,-0.978732479,-2.406677181,0.007075365
0.266212215,0.391246104,0.001814749,-0.16320787,,0.287995836,0.674787698,-0.942399435,-2.332314072,0.006523315
0.266212215,0.391246104,0.001814749,-0.16320787,,0.289186824,0.810835958,-0.878752106,-2.199109593,0.005336249
0.266212215,0.391246104,0.001814749,-0.16320787,,0.289954007,0.26145591,-1.144900387,-2.733698815,0.009790674
0.266212215,0.391246104,0.001814749,-0.16320787,,0.290434059,0.734708237,-0.914161222,-2.273705073,0.006047967
0.267672128,0.470291503,0.002119584,-0.193641081,,0.291279259,0.912821644,-0.832031517,-2.098871129,0.004435784
0.267672128,0.470291503,0.002119584,-0.193641081,,0.294132634,1.124027756,-0.737988473,-1.890244399,0.002502273
0.269132041,0.549336902,0.002400224,-0.223208513,,0.294795768,1.225749656,-0.693964669,-1.789265441,0.001569331
0.269132041,0.549336902,0.002400224,-0.223208513,,0.29561898,1.436011147,-0.605419436,-1.579540479,-0.000279629
0.270591954,0.628382302,0.002655536,-0.251904613,,0.295635364,0.98822087,-0.79801315,-2.024539005,0.003793028
0.270591954,0.628382302,0.002655536,-0.251904613,,0.29576439,1.537317544,-0.563854129,-1.478036254,-0.001105401
0.272051867,0.707427701,0.002884557,-0.27972366,,0.295884859,1.747310779,-0.47968294,-1.266785517,-0.002611786
0.272051867,0.707427701,0.002884557,-0.27972366,,0.295903418,1.848822565,-0.439822048,-1.164306776,-0.003213988
0.272051867,0.707427701,0.002884557,-0.27972366,,0.296093988,2.060380065,-0.358060466,-0.950156571,-0.004133407
0.272051867,0.707427701,0.002884557,-0.27972366,,0.296281402,2.163206655,-0.318770026,-0.845871262,-0.004388339
0.272051867,0.707427701,0.002884557,-0.27972366,,0.29644294,1.048239828,-0.771289351,-1.965254126,0.003236207
0.272051867,0.707427701,0.002884557,-0.27972366,,0.29702712,0.388569903,-1.081141469,-2.610687473,0.009126081
0.273655757,0.785601602,0.003086239,-0.306367575,,0.297358326,2.380791635,-0.235999932,-0.625045958,-0.004440794
0.273655757,0.785601602,0.003086239,-0.306367575,,0.298091337,1.301096749,-0.661838306,-1.714252377,0.000900819
0.275259646,0.863775504,0.003261005,-0.332142206,,0.298242975,2.488289045,-0.195024478,-0.515999932,-0.00419164
0.275259646,0.863775504,0.003261005,-0.332142206,,0.298311641,1.360630274,-0.636772012,-1.654870446,0.000370891
0.275746118,0.293434578,0.001466931,-0.124355673,,0.298662603,1.671866129,-0.50961793,-1.342799339,-0.002126177
0.275746118,0.293434578,0.001466931,-0.124355673,,0.298673096,1.612454349,-0.533424722,-1.402568246,-0.00169488
0.276863536,0.941949405,0.003408354,-0.357041776,,0.298708736,1.924200754,-0.410498193,-1.088080778,-0.003630111
0.276863536,0.941949405,0.003408354,-0.357041776,,0.298742136,1.984046322,-0.387379115,-1.027498954,-0.003894017
0.278467426,1.020123307,0.003527948,-0.381060494,,0.299208005,2.239649243,-0.289665097,-0.768297405,-0.004525759
0.278467426,1.020123307,0.003527948,-0.381060494,,0.299482793,2.301046501,-0.266323643,-0.705980504,-0.004543187
0.278467426,1.020123307,0.003527948,-0.381060494,,0.301681824,2.568259992,-0.164400747,-0.43495758,-0.003908872
0.278467426,1.020123307,0.003527948,-0.381060494,,0.302391938,0.133850975,-1.209963704,-2.856662572,0.011004767
0.278467426,1.020123307,0.003527948,-0.381060494,,0.302398991,2.732794117,-0.100656255,-0.268584476,-0.002855861
0.278467426,1.020123307,0.003527948,-0.381060494,,0.302768841,2.635358205,-0.138555674,-0.367040723,-0.003553148
0.278975731,1.098095011,0.003605178,-0.404134586,,0.305623223,2.863666914,-0.049054649,-0.136772428,-0.001604641
0.278975731,1.098095011,0.003605178,-0.404134586,,0.306341695,0.702288162,-0.929246572,-2.305324161,0.006690611
0.279484035,1.176066715,0.003654288,-0.426320965,,0.31078353,2.960677457,-0.010213056,-0.039407001,-0.000440569
0.279484035,1.176066715,0.003654288,-0.426320965,,0.313670049,0.039435294,-1.258822289,-2.947413733,0.011914275
0.279992339,1.254038419,0.003675773,-0.447614032,,0.313887356,1.016388417,-0.785261497,-1.996642896,0.003753387
0.279992339,1.254038419,0.003675773,-0.447614032,,0.31600248,1.329797273,-0.649558827,-1.685575582,0.000690612
0.280500644,1.332010123,0.003670297,-0.468008308,,0.316413756,1.641657774,-0.521564964,-1.37316166,-0.002015992
0.280500644,1.332010123,0.003670297,-0.468008308,,0.316414825,1.954127182,-0.398841836,-1.057774951,-0.003984337
0.280500644,1.332010123,0.003670297,-0.468008308,,0.316977918,2.270652802,-0.27787292,-0.736826068,-0.004805674
0.280500644,1.332010123,0.003670297,-0.468008308,,0.319707697,2.600362174,-0.152150201,-0.402454917,-0.003963352
0.280500644,1.332010123,0.003670297,-0.468008308,,0.329193027,2.985992909,-0.000250478,-0.014026769,-0.000152576
0.280500644,1.332010123,0.003670297,-0.468008308,,0.331567684,0.254471327,-1.148148541,-2.740096873,0.011268834
0.280612103,1.409663336,0.003633714,-0.487420942,,0.333579654,0.498733689,-1.026611133,-2.503524556,0.009286123
0.280612103,1.409663336,0.003633714,-0.487420942,,0.335052063,0.578455642,-0.987955311,-2.425962299,0.008569277
0.280723563,1.487316549,0.003572385,-0.505931739,,0.335276992,0.014751962,-1.271607667,-2.970925913,0.012867475
0.280723563,1.487316549,0.003572385,-0.505931739,,0.33776851,0.321598139,-1.114247972,-2.675182137,0.010958995
0.280835022,1.564969762,0.003487575,-0.52353584,,0.341183188,0.155822627,-1.198427277,-2.835142326,0.012298005
0.280835022,1.564969762,0.003487575,-0.52353584,,0.344686332,0.815222634,-0.876172994,-2.194471205,0.00634122
0.280946482,1.642622975,0.00338072,-0.540228647,,0.346303949,0.89406563,-0.839998677,-2.117014711,0.00550913
0.280946482,1.642622975,0.00338072,-0.540228647,,0.348580095,0.443739784,-1.053428944,-2.556793491,0.010234478
0.280946482,1.642622975,0.00338072,-0.540228647,,0.349494965,1.13122151,-0.734286525,-1.882856308,0.002924009
0.280946482,1.642622975,0.00338072,-0.540228647,,0.349793401,0.348502555,-1.100671804,-2.649050809,0.011127461
0.280946482,1.642622975,0.00338072,-0.540228647,,0.35000762,1.209860578,-0.700234534,-1.804822344,0.00206614
0.280946482,1.642622975,0.00338072,-0.540228647,,0.350878118,1.445098342,-0.601157894,-1.570270728,-0.00039264
0.280960707,1.720433622,0.003252012,-0.556036952,,0.35094907,1.758172899,-0.475015323,-1.255729718,-0.003153938
0.280960707,1.720433622,0.003252012,-0.556036952,,0.350963417,1.836649532,-0.44424109,-1.176523072,-0.003708208
0.280974933,1.798244269,0.003104681,-0.570921917,,0.350990531,1.523416193,-0.56903767,-1.491824779,-0.001152066
0.280974933,1.798244269,0.003104681,-0.570921917,,0.351095394,2.073120286,-0.353001938,-0.937200738,-0.004929078
0.280989158,1.876054917,0.00294072,-0.584879911,,0.35124028,2.152613367,-0.322693066,-0.856590252,-0.005163088
0.280989158,1.876054917,0.00294072,-0.584879911,,0.3519867,0.628186674,-0.963940475,-2.377366529,0.008497729
0.281003384,1.953865564,0.002762297,-0.597907713,,0.352326064,2.395215392,-0.230616399,-0.610407168,-0.005223431
0.281003384,1.953865564,0.002762297,-0.597907713,,0.353009968,2.478319386,-0.199023641,-0.526112229,-0.004990835
0.281003384,1.953865564,0.002762297,-0.597907713,,0.357305152,2.743447874,-0.096996597,-0.257847037,-0.00325278
0.281003384,1.953865564,0.002762297,-0.597907713,,0.359797738,2.844622889,-0.057253362,-0.155916636,-0.002134911
0.281003384,1.953865564,0.002762297,-0.597907713,,0.360015203,0.093361809,-1.230544462,-2.895082836,0.013396207
0.281003384,1.953865564,0.002762297,-0.597907713,,0.360176058,0.418570291,-1.065740199,-2.581099791,0.010821726
0.281147041,2.032684033,0.002570411,-0.610153003,,0.360828865,0.76120064,-0.901069165,-2.24731032,0.007256719
0.281147041,2.032684033,0.002570411,-0.610153003,,0.364571429,0.943613951,-0.817333251,-2.068131347,0.005235987
0.281290697,2.111502502,0.002368529,-0.621438629,,0.366371033,1.078216717,-0.757318233,-1.935248755,0.003691234
0.281290697,2.111502502,0.002368529,-0.621438629,,0.367440921,0.651352569,-0.952735095,-2.354645746,0.008626413
0.281434354,2.19032097,0.002159452,-0.631762788,,0.367557126,1.260158215,-0.678516183,-1.754732497,0.001610178
0.281434354,2.19032097,0.002159452,-0.631762788,,0.368003231,1.3929087,-0.622613359,-1.622382769,0.000150532
0.281578011,2.269139439,0.001946165,-0.641124278,,0.368082387,1.706424307,-0.495334935,-1.307848052,-0.002878539
0.281578011,2.269139439,0.001946165,-0.641124278,,0.368115582,1.887989991,-0.424152376,-1.124613955,-0.004222594
0.281578011,2.269139439,0.001946165,-0.641124278,,0.368117454,2.021242352,-0.372786472,-0.989755965,-0.004948031
0.281578011,2.269139439,0.001946165,-0.641124278,,0.368263314,1.574107021,-0.548299812,-1.440911427,-0.001691574
0.281578011,2.269139439,0.001946165,-0.641124278,,0.368452667,2.205159715,-0.302693979,-0.803271528,-0.00551354
0.281578011,2.269139439,0.001946165,-0.641124278,,0.368958979,2.341324911,-0.251081303,-0.665089669,-0.005553402
0.28225611,2.351538178,0.001725345,-0.649880879,,0.370541277,2.533596583,-0.17802526,-0.470082105,-0.004983405
0.28225611,2.351538178,0.001725345,-0.649880879,,0.372648284,2.67568865,-0.123465967,-0.326274784,-0.00403494
0.28293421,2.433936916,0.001506353,-0.657584908,,0.374229171,0.733890552,-0.913686336,-2.273942681,0.007850722
0.28293421,2.433936916,0.001506353,-0.657584908,,0.378216502,0.072569016,-1.241226701,-2.914882469,0.014218115
0.283612309,2.516335654,0.001293251,-0.664237401,,0.3784152,2.909769932,-0.031596751,-0.090435293,-0.00134992
0.283612309,2.516335654,0.001293251,-0.664237401,,0.379946578,0.967341786,-0.80646683,-2.044652535,0.005179831
0.284290409,2.598734393,0.001090315,-0.669840315,,0.381065895,1.051385662,-0.768984365,-1.961693405,0.004174499
0.284290409,2.598734393,0.001090315,-0.669840315,,0.38264515,1.28433502,-0.668066543,-1.730598043,0.001404467
0.284290409,2.598734393,0.001090315,-0.669840315,,0.382905676,1.366935536,-0.633284124,-1.648255659,0.000458001
0.284290409,2.598734393,0.001090315,-0.669840315,,0.383004609,1.996039007,-0.382381315,-1.015265927,-0.005018372
0.284290409,2.598734393,0.001090315,-0.669840315,,0.383030873,1.913199475,-0.414293369,-1.099100014,-0.004547832
0.284290409,2.598734393,0.001090315,-0.669840315,,0.383035638,1.680977333,-0.505311964,-1.333433645,-0.002761299
0.285280021,0.195623052,0.001049334,-0.084197458,,0.383207726,1.59870746,-0.538231508,-1.416160829,-0.001992068
0.285280021,0.195623052,0.001049334,-0.084197458,,0.383421721,2.231276556,-0.292770436,-0.776764287,-0.005766974
0.286761842,2.699050795,0.000868268,-0.675248022,,0.383696557,2.315721806,-0.260790537,-0.691069189,-0.005793159
0.286761842,2.699050795,0.000868268,-0.675248022,,0.385725948,2.560638882,-0.167780786,-0.44268778,-0.005030394
0.289233275,2.799367196,0.000674474,-0.679111703,,0.386917272,2.646208624,-0.134965679,-0.356080242,-0.004437518
0.289233275,2.799367196,0.000674474,-0.679111703,,0.387972674,0.380671499,-1.084273467,-2.617555214,0.012055502
0.291704708,2.899683598,0.000519281,-0.681440448,,0.388055625,0.214779901,-1.167892221,-2.777838464,0.013561205
0.291704708,2.899683598,0.000519281,-0.681440448,,0.393923029,2.931095212,-0.023282102,-0.069025133,-0.001085879
0.294176141,3,0.000411966,-0.682244356,,0.396184672,2.988200678,-0.000280633,-0.011802014,-0.000192502
0.294176141,3,0.000411966,-0.682244356,,0.400245687,0.527729486,-1.0118062,-2.474771351,0.010862362
0.294176141,3,0.000411966,-0.682244356,,0.407542961,0.687119586,-0.93530573,-2.319393649,0.009157289
0.294176141,3,0.000411966,-0.682244356,,0.408682512,0.012426788,-1.272445088,-2.972315884,0.015761867
0.294813923,0.097811526,0.000560526,-0.04274267,,0.410837289,0.270256136,-1.139492105,-2.724063587,0.013876907
0.294813923,0.097811526,0.000560526,-0.04274267,,0.416534461,0.845408254,-0.861406008,-2.164327704,0.007320771
0.304347826,0,0,0,,0.418423947,1.005365454,-0.788953258,-2.006894918,0.00522765
0.304347826,0,0,0,,0.42064605,0.169624742,-1.190746335,-2.820984237,0.015115414
0.304347826,0,0,0,,0.420780807,1.323266379,-0.651152088,-1.691631061,0.001080826
0.304347826,0,0,0,,0.420822739,1.164952133,-0.718761682,-1.849018544,0.003130413
0.322220776,0.351891516,0.002012424,-0.147713838,,0.420926365,1.954899308,-0.397972551,-1.056858236,-0.005249747
0.322220776,0.351891516,0.002012424,-0.147713838,,0.421090076,1.638809132,-0.521762129,-1.375743591,-0.002581554
0.331754678,0.25407999,0.001554808,-0.108338887,,0.421455416,2.275119265,-0.276153366,-0.732259825,-0.006357808
0.332312492,0.419995831,0.002408626,-0.174348456,,0.421738471,1.796568627,-0.459369652,-1.216846317,-0.004079635
0.332312492,0.419995831,0.002408626,-0.174348456,,0.421844702,2.114246765,-0.337077846,-0.89544748,-0.006049705
0.333772405,0.49904123,0.002775489,-0.204463767,,0.42194863,1.481162973,-0.585555711,-1.533904658,-0.000843454
0.335232318,0.578086629,0.003110891,-0.233711749,,0.42286218,0.297160552,-1.125777223,-2.697948079,0.014031072
0.336692231,0.657132029,0.003413617,-0.262086754,,0.423199907,2.439630257,-0.213973584,-0.565346329,-0.006123283
0.336692231,0.657132029,0.003413617,-0.262086754,,0.424236494,2.605166323,-0.151019756,-0.397607091,-0.005203897
0.341288581,0.156268464,0.001019085,-0.067662873,,0.42655977,0.058290159,-1.248351035,-2.928022744,0.016178707
0.343290262,0.737357153,0.003743,-0.289983152,,0.428662943,2.788642545,-0.080163484,-0.212274166,-0.003330272
0.343290262,0.737357153,0.003743,-0.289983152,,0.432540095,2.944653086,-0.018466035,-0.055421853,-0.000982222
0.344894152,0.815531055,0.003979827,-0.316292775,,0.434814529,0.481246683,-1.034088503,-2.519580106,0.01239261
0.346498042,0.893704956,0.004181974,-0.341731289,,0.436316531,0.56257093,-0.994489056,-2.440537264,0.011438135
0.348101932,0.971878858,0.004349022,-0.366292886,,0.43884735,0.148831948,-1.201298381,-2.840780151,0.015963959
0.348101932,0.971878858,0.004349022,-0.366292886,,0.444460614,0.340980072,-1.103513631,-2.655352544,0.01430092
0.349189883,1.053567678,0.00447819,-0.391016066,,0.446410492,0.45607719,-1.046310587,-2.543876148,0.013039711
0.349189883,1.053567678,0.00447819,-0.391016066,,0.451770752,0.585736825,-0.983114627,-2.417834878,0.011554362
0.349698187,1.131539382,0.004558242,-0.413709551,,0.453766489,0.800246609,-0.881736239,-2.20830626,0.008653701
0.350206492,1.209511086,0.004603174,-0.435513215,,0.454638706,0.409667296,-1.069143405,-2.588764885,0.013847717
0.350714796,1.28748279,0.004613734,-0.456421478,,0.455416618,0.880674233,-0.844716659,-2.12937478,0.007532835
0.350714796,1.28748279,0.004613734,-0.456421478,,0.458635564,1.12184825,-0.736983478,-1.891483279,0.004071538
0.350822484,0.058456938,0.000404657,-0.025695114,,0.459158522,1.202067848,-0.702211914,-1.81195397,0.002920979
0.350822484,0.058456938,0.000404657,-0.025695114,,0.459633721,2.074440638,-0.352053156,-0.93575568,-0.006399767
0.350968021,1.367768695,0.004586113,-0.477009108,,0.459650517,1.756090288,-0.474892167,-1.257569086,-0.004026391
0.350968021,1.367768695,0.004586113,-0.477009108,,0.459665153,1.836144186,-0.443601221,-1.176816134,-0.00477363
0.351079481,1.445421908,0.004525237,-0.496007668,,0.45978152,2.155531412,-0.321297032,-0.853553403,-0.006715494
0.351135135,1.680692861,0.004159288,-0.548031467,,0.459934985,1.43955934,-0.602188985,-1.575357019,-0.000345058
0.351135135,1.680692861,0.004159288,-0.548031467,,0.460049658,1.519451264,-0.569458607,-1.495395918,-0.001365535
0.35114936,1.758503508,0.003985898,-0.56338958,,0.460636336,2.398776817,-0.229528995,-0.606780862,-0.006788434
0.351152283,1.994643027,0.003334322,-0.604320104,,0.461333985,2.483551079,-0.197512915,-0.520807874,-0.006471036
0.351152283,1.994643027,0.003334322,-0.604320104,,0.464384196,0.229007158,-1.159939757,-2.76321488,0.016163386
0.351163585,1.836314155,0.003790294,-0.577822531,,0.464951642,2.73414926,-0.101817227,-0.267232235,-0.004343977
0.351177811,1.914124803,0.003575071,-0.591326824,,0.467166795,0.772936522,-0.89423144,-2.234932501,0.009320883
0.351177811,1.914124803,0.003575071,-0.591326824,,0.467494326,2.837357744,-0.06163776,-0.163202054,-0.002909848
0.35119094,1.523075121,0.004434007,-0.514102307,,0.470791768,0.904402068,-0.833680765,-2.105922664,0.007448557
0.35129594,2.073461495,0.003086027,-0.616069898,,0.472736586,0.63639343,-0.958541409,-2.368268565,0.011406192
0.3513024,1.600728334,0.004314105,-0.531288238,,0.473330425,1.095017195,-0.748509504,-1.917929885,0.004619888
0.3513024,1.600728334,0.004314105,-0.531288238,,0.473432207,0.117247433,-1.217335729,-2.870707638,0.017538403
0.351439597,2.152279964,0.002826932,-0.626858788,,0.474246547,1.226244652,-0.691617164,-1.787850395,0.00267737
0.351583253,2.231098433,0.002560659,-0.636685206,,0.474520876,2.049237293,-0.361566526,-0.961271038,-0.006468421
0.351583253,2.231098433,0.002560659,-0.636685206,,0.474580444,1.86135367,-0.433683946,-1.15132612,-0.005139339
0.351850388,2.31317738,0.002280661,-0.645894015,,0.474603768,1.730643314,-0.484751848,-1.283164093,-0.003879156
0.351850388,2.31317738,0.002280661,-0.645894015,,0.474750574,2.181648252,-0.311382169,-0.827055246,-0.007000367
0.352528488,2.395576119,0.002002704,-0.654087257,,0.47483743,1.413586175,-0.612723713,-1.601237297,1.31119E-05
0.353206587,2.477974857,0.001729818,-0.661227833,,0.47499407,1.544051704,-0.559281633,-1.470675836,-0.001707955
0.353884686,2.560373595,0.00146721,-0.667317188,,0.475373914,2.373173712,-0.239214926,-0.632751113,-0.007063724
0.353884686,2.560373595,0.00146721,-0.667317188,,0.476518656,2.510593378,-0.187363075,-0.493396106,-0.006530342
0.355042627,2.643545524,0.001219704,-0.672399701,,0.478659063,0.260945657,-1.143532765,-2.732225739,0.016339122
0.355042627,2.643545524,0.001219704,-0.672399701,,0.47922063,2.704669233,-0.11337195,-0.296998494,-0.004841332
0.357514061,2.743861925,0.000952686,-0.677112252,,0.47939109,0.717305206,-0.920096262,-2.289227102,0.010401015
0.359985494,2.844178327,0.000726441,-0.68028313,,0.483002155,2.858683025,-0.053504879,-0.141749929,-0.002659604
0.362456927,2.944494729,0.000551966,-0.681921786,,0.485991138,0.204323827,-1.172340894,-2.786714899,0.017194799
0.362456927,2.944494729,0.000551966,-0.681921786,,0.488131658,2.988200678,-0.001980497,-0.011803144,-0.000247531
0.364655194,3,0.000481713,-0.682172986,,0.488654459,0.956708077,-0.809744318,-2.054303534,0.006938095
0.378229336,0.312536928,0.002136976,-0.132007008,,0.489751722,1.039096077,-0.772920059,-1.973063268,0.005669109
0.378229336,0.312536928,0.002136976,-0.132007008,,0.490868102,0.326739122,-1.110136354,-2.668543476,0.016015263
0.380434783,0,0,0,,0.491595926,1.278357934,-0.66915127,-1.735937728,0.002008607
0.387763239,0.214725402,0.001562492,-0.092112605,,0.491675673,1.996025787,-0.381751196,-1.015124748,-0.006365317
0.388321052,0.380641243,0.002600687,-0.159005569,,0.491701419,1.914818403,-0.412888272,-1.097266987,-0.005766512
0.397297141,0.116913876,0.000901962,-0.050922246,,0.491851318,1.359331011,-0.63505613,-1.65529126,0.000812881
0.397297141,0.116913876,0.000901962,-0.050922246,,0.491879478,1.677204861,-0.505689944,-1.336894257,-0.003399546
0.398412769,0.448745558,0.003056675,-0.185365308,,0.492048174,1.596555912,-0.537884237,-1.417932573,-0.002423824
0.398412769,0.448745558,0.003056675,-0.185365308,,0.492059837,2.236752663,-0.290569104,-0.771149374,-0.007356811
0.399872682,0.527790957,0.003480983,-0.21516151,,0.492329258,2.319534129,-0.259423946,-0.68716558,-0.007387564
0.401332594,0.606836356,0.003866411,-0.244088884,,0.494426433,2.566477193,-0.166312202,-0.436778881,-0.006380364
0.401332594,0.606836356,0.003866411,-0.244088884,,0.495594285,2.650360995,-0.134388075,-0.351886064,-0.005624791
0.407930626,0.687061481,0.004271194,-0.272549596,,0.49762013,0.511682262,-1.018392185,-2.489324758,0.013829957
0.414528658,0.767286605,0.004641143,-0.300102766,,0.5014053,2.888672743,-0.042003584,-0.11160088,-0.00222809
0.414528658,0.767286605,0.004641143,-0.300102766,,0.503297959,0.058290159,-1.247785722,-2.926931676,0.019188269
0.416132548,0.845460507,0.004907575,-0.326077013,,0.503622383,2.944653086,-0.019799077,-0.05541885,-0.001159851
0.417736437,0.923634408,0.005131532,-0.351178392,,0.504033757,0.415588025,-1.065587763,-2.582429468,0.015330081
0.417736437,0.923634408,0.005131532,-0.351178392,,0.50794557,0.012426788,-1.271807116,-2.970891207,0.019722443
0.418824389,1.005323229,0.005312225,-0.376470024,,0.508630237,0.253422485,-1.147026273,-2.739072702,0.017484816
0.41991234,1.087012049,0.005445781,-0.400795538,,0.511385811,0.481803308,-1.032820253,-2.518155682,0.014652884
0.41991234,1.087012049,0.005445781,-0.400795538,,0.513556374,0.221483986,-1.163265956,-2.769789909,0.018019176
0.420420644,1.164983753,0.005522573,-0.423107451,,0.515965988,0.539182726,-1.00473793,-2.462387674,0.013961468
0.420928949,1.242955457,0.005557354,-0.444527499,,0.516115279,0.320401737,-1.113019944,-2.674325386,0.01694931
0.420928949,1.242955457,0.005557354,-0.444527499,,0.517127863,0.148831948,-1.200583777,-2.839686994,0.018912094
0.421182174,1.323241362,0.005546723,-0.465645737,,0.521455319,0.83176741,-0.866133558,-2.176753524,0.009509789
0.421301182,2.035420489,0.003854597,-0.61046483,,0.525062922,0.616529132,-0.967269853,-2.387034377,0.013041108
0.421301182,2.035420489,0.003854597,-0.61046483,,0.525791047,1.156697643,-0.72077973,-1.8564667,0.004175788
0.421323787,1.718762747,0.004906006,-0.555602181,,0.526230234,2.116284853,-0.335887287,-0.8932715,-0.007483503
0.421323787,1.718762747,0.004906006,-0.555602181,,0.526279619,1.795324175,-0.458847502,-1.217821466,-0.00497129
0.42132671,1.954902266,0.004154727,-0.597976924,,0.526832542,1.476592885,-0.586044435,-1.537979006,-0.000860709
0.421338013,1.796573394,0.004683245,-0.570509376,,0.527371322,2.443858542,-0.212792536,-0.561045012,-0.007578451
0.421352238,1.874384042,0.004435127,-0.584489627,,0.529280934,0.40925064,-1.068392454,-2.588231101,0.016217835
0.421352238,1.874384042,0.004435127,-0.584489627,,0.532213463,2.780677647,-0.084759043,-0.220295502,-0.0042745
0.421435399,1.403527267,0.005494108,-0.485806574,,0.533670715,0.721190845,-0.917425529,-2.284843705,0.01158331
0.421435399,1.403527267,0.005494108,-0.485806574,,0.537362955,0.799347335,-0.880857364,-2.208352624,0.010367473
0.421444839,2.114238958,0.003547173,-0.621718445,,0.53970731,0.859934958,-0.852879193,-2.148934047,0.009388272
0.421491052,1.63879822,0.005107636,-0.539320331,,0.540348321,0.163287357,-1.192878771,-2.825418652,0.019643849
0.421546858,1.48118048,0.005403187,-0.504390238,,0.541356985,0.474280136,-1.036082427,-2.525061736,0.015662701
0.421588496,2.193057427,0.003228838,-0.632009942,,0.543235462,1.124846233,-0.734336825,-1.887859465,0.004884178
0.421588496,2.193057427,0.003228838,-0.632009942,,0.543553125,0.938810627,-0.816913817,-2.071402972,0.00810109
0.421658318,1.558833693,0.005276565,-0.522067952,,0.54370219,1.185398168,-0.708069315,-1.827878653,0.003854966
0.421658318,1.558833693,0.005276565,-0.522067952,,0.543902923,2.086365714,-0.34710703,-0.92356307,-0.00757015
0.421855631,2.275136374,0.002891391,-0.641703003,,0.543985709,1.825250603,-0.447016003,-1.187584409,-0.005443329
0.422122765,2.357215321,0.00255218,-0.650350514,,0.544000147,2.147288413,-0.324117919,-0.861826139,-0.00785463
0.422122765,2.357215321,0.00255218,-0.650350514,,0.544030771,1.76511582,-0.470446224,-1.248210807,-0.004773695
0.422800865,2.43961406,0.002217732,-0.657979757,,0.544523381,1.445759884,-0.598428136,-1.568704654,-0.00039229
0.423478964,2.522012798,0.001892655,-0.664556276,,0.544573201,1.50579631,-0.573860934,-1.508660145,-0.001304099
0.423478964,2.522012798,0.001892655,-0.664556276,,0.544866447,2.413464842,-0.224270378,-0.591863548,-0.00794704
0.424636905,2.605184726,0.00158222,-0.670128363,,0.544972466,1.045381877,-0.769226351,-1.966378594,0.00627516
0.425794846,2.688356654,0.001294035,-0.674632617,,0.545397196,2.475960723,-0.200820603,-0.528493416,-0.007668714
0.425794846,2.688356654,0.001294035,-0.674632617,,0.546718405,2.008350821,-0.376673569,-1.00255289,-0.007115475
0.42690944,0.058456938,0.00049456,-0.025687413,,0.546745471,1.26303413,-0.674782045,-1.750790561,0.002567248
0.428266279,2.788673056,0.000988513,-0.67864906,,0.546751708,1.903306731,-0.416838732,-1.108773253,-0.006249072
0.430737712,2.888989458,0.000737267,-0.68112608,,0.54698802,1.687540867,-0.50092138,-1.32628857,-0.003843991
0.430737712,2.888989458,0.000737267,-0.68112608,,0.547048876,2.226955789,-0.294163877,-0.781045477,-0.008127747
0.43293598,2.944494729,0.000627019,-0.681837818,,0.547075828,1.367775137,-0.630683711,-1.646528086,0.000844893
0.434237896,0.27318234,0.002184147,-0.116089453,,0.547206234,1.58321913,-0.542506356,-1.431067445,-0.002435331
0.434237896,0.27318234,0.002184147,-0.116089453,,0.54739738,2.334035999,-0.254034022,-0.672429279,-0.008171416
0.435134247,3,0.000538703,-0.682083522,,0.549152319,2.745681615,-0.098525027,-0.25558993,-0.004960169
0.443771799,0.175370814,0.001485764,-0.075679118,,0.549310634,2.556696396,-0.170457337,-0.446682424,-0.007161197
0.443771799,0.175370814,0.001485764,-0.075679118,,0.55062296,2.805993098,-0.075249359,-0.194777053,-0.004000548
0.444329613,0.341286655,0.002720027,-0.143449811,,0.550821283,2.665202509,-0.129350501,-0.336878534,-0.006070469
0.454421329,0.40939097,0.003245609,-0.170173443,,0.552868317,0.532753991,-1.007304207,-2.468158873,0.015111043
0.456521739,0,0,0,,0.555513091,2.858683025,-0.054805601,-0.141738488,-0.003074122
0.464513046,0.477495285,0.003757593,-0.196257131,,0.555760074,0.072569016,-1.239866693,-2.91236242,0.021143829
0.464513046,0.477495285,0.003757593,-0.196257131,,0.556148779,0.611113682,-0.969372266,-2.391920662,0.013945026
0.465972958,0.556540684,0.004234723,-0.225733047,,0.557751791,2.985992909,-0.004427429,-0.014011275,-0.00033898
0.465972958,0.556540684,0.004234723,-0.225733047,,0.558380951,2.931095212,-0.026344593,-0.069008776,-0.001597857
0.47257099,0.636765809,0.004724021,-0.254754312,,0.562887197,0.31125339,-1.117029864,-2.682474575,0.018676575
0.473384098,0.116913876,0.001079793,-0.050905556,,0.564493632,0.497730355,-1.024223265,-2.501998376,0.016000363
0.479169022,0.716990933,0.005172521,-0.28287233,,0.564756573,0.715775394,-0.919451847,-2.289763876,0.012396395
0.485767053,0.797216058,0.005577443,-0.310081031,,0.570298741,0.260151971,-1.142853539,-2.731653747,0.019611405
0.485767053,0.797216058,0.005577443,-0.310081031,,0.573065289,0.379940614,-1.082374314,-2.615958843,0.018057414
0.487370943,0.875389959,0.005867934,-0.335718831,,0.573539835,0.936106818,-0.817603104,-2.073750806,0.008643455
0.487370943,0.875389959,0.005867934,-0.335718831,,0.574265284,0.7929186,-0.883200348,-2.214224589,0.011249885
0.488458894,0.957078779,0.006110173,-0.361575531,,0.57444843,0.233247555,-1.156533144,-2.757514325,0.020103899
0.489546846,1.0387676,0.006296869,-0.386470604,,0.574959177,1.042678069,-0.769889604,-1.968760608,0.006716982
0.490246457,0.233827751,0.002149558,-0.099963426,,0.575304831,0.85672524,-0.853725085,-2.151691384,0.010119896
0.490246457,0.233827751,0.002149558,-0.099963426,,0.576530656,2.008341074,-0.376457187,-1.002504082,-0.007471468
0.490246457,0.233827751,0.002149558,-0.099963426,,0.576563959,1.903296983,-0.416557303,-1.108704949,-0.00655325
0.490246457,0.233827751,0.002149558,-0.099963426,,0.576776288,2.227780029,-0.293797794,-0.780183499,-0.008548939
0.490246457,0.233827751,0.002149558,-0.099963426,,0.576827264,1.686738236,-0.500844739,-1.326970221,-0.003999751
0.490634797,1.12045642,0.006428378,-0.410397377,,0.57685186,1.261319451,-0.674992659,-1.752261498,0.00278739
0.490634797,1.12045642,0.006428378,-0.410397377,,0.577045478,1.582416498,-0.542394637,-1.431722257,-0.002510672
0.491143101,1.198428124,0.006495848,-0.432326765,,0.577124792,2.334860239,-0.253761439,-0.671578311,-0.008597588
0.491143101,1.198428124,0.006495848,-0.432326765,,0.577182218,1.366060458,-0.630899172,-1.648030949,0.000968788
0.491396326,1.278714029,0.006510673,-0.453973257,,0.578832983,1.121636515,-0.735106678,-1.890718031,0.005319778
0.491450082,2.076197952,0.004320554,-0.616340037,,0.578858386,2.558040876,-0.170202555,-0.445318039,-0.007527902
0.491450082,2.076197952,0.004320554,-0.616340037,,0.578980532,0.087024425,-1.232087904,-2.898074963,0.021927315
0.49147561,1.995679728,0.004683276,-0.604358299,,0.579289851,2.148266876,-0.323607215,-0.86079134,-0.00833744
0.491501138,1.915161505,0.005025111,-0.591375503,,0.579293341,2.086354142,-0.346914019,-0.923520523,-0.008028573
0.49151244,1.756832633,0.005618022,-0.562939159,,0.579376127,1.825239031,-0.446630875,-1.187484229,-0.005750561
0.49151244,1.756832633,0.005618022,-0.562939159,,0.579441782,1.183362656,-0.70832006,-1.829596267,0.004202868
0.491526665,1.834643281,0.005341331,-0.577394691,,0.579453234,1.764163008,-0.470392747,-1.249042848,-0.005023805
0.491526665,1.834643281,0.005341331,-0.577394691,,0.579995663,1.504843498,-0.573703018,-1.509412568,-0.001318106
0.491593738,2.155016421,0.003951523,-0.627096714,,0.580156151,2.414443306,-0.224034015,-0.590860611,-0.008442588
0.491593738,2.155016421,0.003951523,-0.627096714,,0.580262974,1.443724372,-0.598694258,-1.570516968,-0.000327608
0.491649551,1.358999934,0.006475282,-0.474666011,,0.580369036,2.666546989,-0.129208288,-0.335518639,-0.006377089
0.491679705,1.676868106,0.00587158,-0.547119497,,0.580473625,2.477556768,-0.200424158,-0.526869565,-0.008140408
0.49184697,1.596903579,0.006088298,-0.530327227,,0.582021805,0.014751962,-1.270006376,-2.967378044,0.022712552
0.491860873,2.237095368,0.003557195,-0.637274308,,0.582352087,0.185053219,-1.181180147,-2.803784153,0.020986594
0.491902776,1.439285839,0.00639155,-0.494399147,,0.584228748,2.747277661,-0.098455401,-0.253977036,-0.005254505
0.491902776,1.439285839,0.00639155,-0.494399147,,0.584853593,2.858683025,-0.055388144,-0.141740902,-0.003241684
0.492014235,1.516939052,0.006264897,-0.512567097,,0.585453359,2.805993098,-0.075866936,-0.194777344,-0.004260136
0.492014235,1.516939052,0.006264897,-0.512567097,,0.587721453,2.931095212,-0.027005559,-0.069009483,-0.001684499
0.492128008,2.319174315,0.003157608,-0.646406026,,0.592582191,2.985992909,-0.005287418,-0.014011224,-0.000360442
0.492395143,2.401253262,0.002759259,-0.654491434,,0.593847052,0.419068609,-1.062564952,-2.577788944,0.018143556
0.492395143,2.401253262,0.002759259,-0.654491434,,0.593955168,0.822128958,-0.869310994,-2.185383666,0.011124899
0.493073242,2.483652001,0.002369411,-0.661555884,,0.596910357,2.117251745,-0.335181463,-0.892194655,-0.008426735
0.493073242,2.483652001,0.002369411,-0.661555884,,0.5970925,1.794359791,-0.458406458,-1.218553978,-0.005529778
0.494231183,2.566823929,0.001992678,-0.667618453,,0.59712816,1.151452414,-0.721796308,-1.861043606,0.004958937
0.495389124,2.649995857,0.001638063,-0.672610673,,0.597737456,2.44643305,-0.212158874,-0.558418435,-0.008548344
0.496547065,2.733167785,0.001313776,-0.676535857,,0.597994597,1.473604561,-0.586149518,-1.540544569,-0.000811012
0.496547065,2.733167785,0.001313776,-0.676535857,,0.602120291,2.782273692,-0.085317093,-0.218679997,-0.004817224
0.499018498,2.833484187,0.000976626,-0.679855172,,0.609587041,0.031912122,-1.260715199,-2.950396513,0.023689804
0.499018498,2.833484187,0.000976626,-0.679855172,,0.61221784,0.126095945,-1.211361945,-2.859939416,0.022822862
0.500338173,0.301932067,0.002762222,-0.127683315,,0.613336947,0.438822652,-1.052454086,-2.558361222,0.018451029
0.500338173,0.301932067,0.002762222,-0.127683315,,0.618550584,0.610991252,-0.968351277,-2.391182316,0.015615844
0.501216765,2.888989458,0.000819924,-0.681029436,,0.625205089,0.691903028,-0.929630235,-2.3122648,0.0142822
0.502996397,0.058456938,0.000585705,-0.025678093,,0.6261812,0.320877921,-1.111262675,-2.67215048,0.020743862
0.503415033,2.944494729,0.000686535,-0.681735005,,0.629312704,0.944025359,-0.812959909,-2.065331854,0.009427037
0.5056133,3,0.000579126,-0.681974131,,0.630409967,1.026413359,-0.776042024,-1.984216086,0.00779383
0.51042989,0.370036382,0.003362196,-0.154768582,,0.631501793,2.240618915,-0.288896685,-0.767111794,-0.009338805
0.51042989,0.370036382,0.003362196,-0.154768582,,0.631515583,1.995980064,-0.380697709,-1.014884815,-0.008007243
0.519858756,0.175370814,0.001749413,-0.075652248,,0.631541329,1.91477268,-0.411598798,-1.096955603,-0.007221541
0.519858756,0.175370814,0.001749413,-0.075652248,,0.631771214,2.32340038,-0.258089178,-0.6831679,-0.009386693
0.520521606,0.438140697,0.003945962,-0.181216092,,0.631846007,1.673439966,-0.505310041,-1.340076461,-0.004086738
0.520521606,0.438140697,0.003945962,-0.181216092,,0.632014703,1.592791018,-0.537376328,-1.421016459,-0.002820183
0.530613322,0.506245012,0.004510107,-0.207022565,,0.632815547,1.270314916,-0.670137908,-1.742851023,0.002990411
0.530613322,0.506245012,0.004510107,-0.207022565,,0.633025664,2.572783727,-0.165177295,-0.430383052,-0.008074783
0.530613322,0.506245012,0.004510107,-0.207022565,,0.633070939,1.351287993,-0.636061339,-1.662321285,0.001446148
0.530613322,0.506245012,0.004510107,-0.207022565,,0.633303595,0.554112087,-0.995560373,-2.446252718,0.01706248
0.530613322,0.506245012,0.004510107,-0.207022565,,0.634193516,2.656667528,-0.133656773,-0.345504641,-0.007100615
0.530613322,0.506245012,0.004510107,-0.207022565,,0.636260888,0.017160159,-1.268254531,-2.964007704,0.024925215
0.532608696,0,0,0,,0.639032382,2.888672743,-0.04486681,-0.111594454,-0.002868584
0.537211354,0.586470136,0.005093042,-0.236600389,,0.641249465,2.944653086,-0.02296051,-0.055414997,-0.001497624
0.537211354,0.586470136,0.005093042,-0.236600389,,0.643096552,0.524608806,-1.009749206,-2.474738356,0.017884389
0.543809385,0.666695261,0.005629394,-0.265279312,,0.64354665,0.096842394,-1.226268423,-2.887428176,0.024397934
0.543809385,0.666695261,0.005629394,-0.265279312,,0.64564609,0.19467775,-1.17541724,-2.793380348,0.023265273
0.549471055,0.116913876,0.001260259,-0.05088567,,0.645905896,0.88861257,-0.837772454,-2.11955001,0.010843525
0.549471055,0.116913876,0.001260259,-0.05088567,,0.648350469,2.186461586,-0.309036754,-0.821990243,-0.009419209
0.550407417,0.746920385,0.006116084,-0.293053321,,0.648444554,1.079227697,-0.752331681,-1.931916105,0.00696611
0.550407417,0.746920385,0.006116084,-0.293053321,,0.648616209,2.049180369,-0.360462725,-0.961025482,-0.008641792
0.55300332,0.243370604,0.002525958,-0.103854259,,0.648675777,1.861296746,-0.431900817,-1.150874294,-0.006774495
0.55300332,0.243370604,0.002525958,-0.103854259,,0.648699639,0.741311783,-0.90588173,-2.263707955,0.013883675
0.557005449,0.82714551,0.006550361,-0.319916295,,0.648856737,1.725956165,-0.484398311,-1.287202639,-0.004958552
0.557005449,0.82714551,0.006550361,-0.319916295,,0.648973809,2.377987047,-0.237841219,-0.627801177,-0.009532161
0.557005449,0.82714551,0.006550361,-0.319916295,,0.649069391,2.518444771,-0.185626817,-0.485418962,-0.008775557
0.557005449,0.82714551,0.006550361,-0.319916295,,0.649247038,1.539364554,-0.55855954,-1.474430671,-0.001949966
0.557005449,0.82714551,0.006550361,-0.319916295,,0.650059567,1.216231403,-0.692843305,-1.796359167,0.004190714
0.557005449,0.82714551,0.006550361,-0.319916295,,0.65065045,1.403572925,-0.614003395,-1.610082788,0.000522909
0.5580934,0.90883433,0.00686437,-0.346334391,,0.651771365,2.712520626,-0.112796518,-0.28906218,-0.006456755
0.5580934,0.90883433,0.00686437,-0.346334391,,0.652171356,0.272601579,-1.135370292,-2.718237038,0.022399628
0.559181351,0.99052315,0.007114363,-0.371795487,,0.654342601,2.858683025,-0.056878302,-0.14173868,-0.003638316
0.559181351,0.99052315,0.007114363,-0.371795487,,0.656321045,0.245697163,-1.149051139,-2.744075328,0.022950615
0.560269302,1.072211971,0.007300571,-0.396292854,,0.659472104,2.988200678,-0.006213369,-0.011802754,-0.000340055
0.560269302,1.072211971,0.007300571,-0.396292854,,0.661616604,0.859469285,-0.850783073,-2.147922433,0.011748255
0.561357254,1.153900791,0.0074236,-0.419819808,,0.662554012,0.342669315,-1.099691488,-2.65047105,0.021668947
0.561357254,1.153900791,0.0074236,-0.419819808,,0.663193665,2.160334998,-0.318720137,-0.848442853,-0.009508965
0.561357254,1.153900791,0.0074236,-0.419819808,,0.663456466,2.075207954,-0.35056756,-0.934651057,-0.009012615
0.561357254,1.153900791,0.0074236,-0.419819808,,0.66359973,1.83528463,-0.441724869,-1.177049042,-0.006574851
0.561357254,1.153900791,0.0074236,-0.419819808,,0.663612131,2.492226712,-0.19549566,-0.511981796,-0.009169673
0.561357254,1.153900791,0.0074236,-0.419819808,,0.663715737,1.751393391,-0.474239625,-1.261541704,-0.005419752
0.561598981,2.116975415,0.004729475,-0.62194346,,0.663783983,2.404934632,-0.227892844,-0.600469055,-0.009650754
0.561598981,2.116975415,0.004729475,-0.62194346,,0.663856081,1.104344074,-0.740993892,-1.906940957,0.006637339
0.561598981,2.116975415,0.004729475,-0.62194346,,0.664409016,1.513049436,-0.568933271,-1.500656177,-0.001489786
0.561598981,2.116975415,0.004729475,-0.62194346,,0.664486268,0.472600626,-1.034878152,-2.52480318,0.019482383
0.561598981,2.116975415,0.004729475,-0.62194346,,0.664958253,1.189350789,-0.70407959,-1.822845649,0.004875081
0.561598981,2.116975415,0.004729475,-0.62194346,,0.665286043,0.765918062,-0.894023412,-2.239429347,0.013767016
0.561610479,1.234186696,0.007472664,-0.441991935,,0.66558725,1.428743458,-0.60333724,-1.584859187,8.38107E-05
0.561610479,1.234186696,0.007472664,-0.441991935,,0.666016219,0.084415607,-1.232522574,-2.898894363,0.025446106
0.561624509,2.036457191,0.005157789,-0.610468756,,0.666842878,2.742000653,-0.101868806,-0.259300011,-0.006098034
0.561624509,2.036457191,0.005157789,-0.610468756,,0.668382525,2.838702224,-0.064913179,-0.161840194,-0.004171466
0.561650037,1.955938967,0.005564712,-0.597991351,,0.682043907,0.362423357,-1.089421,-2.631039297,0.022011907
0.561650037,1.955938967,0.005564712,-0.597991351,,0.686787055,0.185554934,-1.179562087,-2.801335177,0.024971407
0.561675565,1.875420743,0.005944636,-0.584514107,,0.700839759,0.636024509,-0.954734262,-2.365532445,0.017348449
0.561675565,1.875420743,0.005944636,-0.584514107,,0.701126567,2.118067293,-0.33427897,-0.891184652,-0.009765607
0.561701093,1.79490252,0.006292373,-0.570040433,,0.701241093,2.449803041,-0.211462337,-0.554965705,-0.009953185
0.561701093,1.79490252,0.006292373,-0.570040433,,0.701350233,0.979854868,-0.795318449,-2.029185351,0.009870465
0.561701093,1.79490252,0.006292373,-0.570040433,,0.70154491,1.792758009,-0.457620815,-1.219727934,-0.006271642
0.561701093,1.79490252,0.006292373,-0.570040433,,0.701935202,2.282896015,-0.273111505,-0.724176269,-0.010368722
0.561701093,1.79490252,0.006292373,-0.570040433,,0.702206615,1.954807338,-0.395602188,-1.056296669,-0.008360417
0.561701093,1.79490252,0.006292373,-0.570040433,,0.702625013,1.631236255,-0.520860742,-1.38203454,-0.003664422
0.561863703,1.314472601,0.007463008,-0.463214158,,0.702700605,1.144226397,-0.722775802,-1.867082122,0.006235284
0.561863703,1.314472601,0.007463008,-0.463214158,,0.703006704,0.807323358,-0.873949679,-2.198386252,0.01372719
0.561866116,2.199054362,0.004279341,-0.632605817,,0.703021186,2.617851567,-0.149136438,-0.38475968,-0.00840554
0.561866116,2.199054362,0.004279341,-0.632605817,,0.70313478,1.469355061,-0.585967266,-1.544024352,-0.000632879
0.561868358,1.714937992,0.006602871,-0.554683787,,0.704836269,1.307088293,-0.653145166,-1.705636736,0.002713738
0.561868358,1.714937992,0.006602871,-0.554683787,,0.704889256,2.794949079,-0.082474306,-0.205901857,-0.005383344
0.562035623,1.634973465,0.006872789,-0.538352502,,0.709256623,0.173128147,-1.185678454,-2.812803224,0.026024143
0.562035623,1.634973465,0.006872789,-0.538352502,,0.709369364,2.944653086,-0.024819386,-0.055415073,-0.001662859
0.562116928,1.394758506,0.007396565,-0.483480453,,0.710196624,0.014455409,-1.268955554,-2.964977835,0.02804768
0.562116928,1.394758506,0.007396565,-0.483480453,,0.712146464,0.284369306,-1.128423493,-2.705725324,0.024404469
0.56213325,2.281133309,0.003819535,-0.642222166,,0.717072602,0.252430807,-1.144666749,-2.736376582,0.025111431
0.56213325,2.281133309,0.003819535,-0.642222166,,0.717602179,0.413537933,-1.063183431,-2.580979405,0.022297788
0.562202888,1.555008938,0.007098219,-0.521051232,,0.717615533,0.067805786,-1.240649303,-2.913689948,0.027757001
0.562202888,1.555008938,0.007098219,-0.521051232,,0.735283111,0.307819525,-1.116091566,-2.682649223,0.0248473
0.562370153,1.475044411,0.007275638,-0.502784976,,0.739088514,0.934959071,-0.814673118,-2.072767744,0.011552022
0.562370153,1.475044411,0.007275638,-0.502784976,,0.739458113,2.241148234,-0.288467559,-0.766443441,-0.01081068
0.562370153,1.475044411,0.007275638,-0.502784976,,0.739610615,2.57674132,-0.164864361,-0.426360476,-0.009356751
0.562370153,1.475044411,0.007275638,-0.502784976,,0.739732949,2.325593484,-0.257365633,-0.680854488,-0.010887378
0.562370153,1.475044411,0.007275638,-0.502784976,,0.739747014,0.586493326,-0.977752795,-2.412993899,0.019484522
0.562370153,1.475044411,0.007275638,-0.502784976,,0.740057095,1.995922261,-0.379678993,-1.014636409,-0.009189334
0.562400385,2.363212256,0.003357295,-0.650791576,,0.740083359,1.913082729,-0.410979198,-1.098281955,-0.008228808
0.562400385,2.363212256,0.003357295,-0.650791576,,0.740207831,1.019002947,-0.776945962,-1.990133618,0.009598592
0.56266752,2.445291203,0.002900284,-0.658313937,,0.740411421,1.671364449,-0.504337224,-1.341534666,-0.004496801
0.56266752,2.445291203,0.002900284,-0.658313937,,0.740583508,1.589094576,-0.536926399,-1.42400372,-0.002969251
0.56266752,2.445291203,0.002900284,-0.658313937,,0.740801939,2.662311062,-0.133102679,-0.339791782,-0.008193782
0.56266752,2.445291203,0.002900284,-0.658313937,,0.743220446,1.263798825,-0.670576452,-1.748205885,0.00394491
0.56266752,2.445291203,0.002900284,-0.658313937,,0.743480971,1.34639934,-0.6358402,-1.666169295,0.002091043
0.56266752,2.445291203,0.002900284,-0.658313937,,0.743746449,0.237678845,-1.151804288,-2.749995158,0.026360944
0.563095036,0.311474919,0.003209091,-0.131477526,,0.745325514,2.931095212,-0.031152876,-0.06900978,-0.002154636
0.563825461,2.528463131,0.002454416,-0.664867972,,0.746535264,0.669031309,-0.937978032,-2.332615418,0.017855919
0.563825461,2.528463131,0.002454416,-0.664867972,,0.746775444,0.497633883,-1.020949365,-2.499041602,0.021577157
0.564983402,2.611635059,0.002029431,-0.670349313,,0.747587156,2.988200678,-0.008905058,-0.011802474,-0.000387405
0.564983402,2.611635059,0.002029431,-0.670349313,,0.74953997,0.556990045,-0.991855639,-2.441448613,0.020406849
0.566141343,2.694806987,0.00163455,-0.674760685,,0.751043783,0.136387591,-1.204207311,-2.847138892,0.02821805
0.566141343,2.694806987,0.00163455,-0.674760685,,0.754153355,2.55052326,-0.174714248,-0.452902653,-0.009831342
0.567299283,2.777978915,0.001279295,-0.678105851,,0.754301309,2.215021646,-0.298059958,-0.79289202,-0.010928151
0.567299283,2.777978915,0.001279295,-0.678105851,,0.754543123,2.352541069,-0.247482444,-0.653524759,-0.011054966
0.567299283,2.777978915,0.001279295,-0.678105851,,0.754799222,0.905815786,-0.827522642,-2.101123477,0.012536639
0.567299283,2.777978915,0.001279295,-0.678105851,,0.754897352,2.021949846,-0.369759648,-0.988286091,-0.009612738
0.567299283,2.777978915,0.001279295,-0.678105851,,0.755007313,1.887070613,-0.420672102,-1.124456416,-0.008014931
0.567299283,2.777978915,0.001279295,-0.678105851,,0.755270421,1.696801675,-0.494088851,-1.315906848,-0.005006403
0.569497551,2.833484187,0.001070765,-0.679745,,0.755619359,1.044119324,-0.765435403,-1.965186695,0.009239309
0.569497551,2.833484187,0.001070765,-0.679745,,0.755745486,1.562779458,-0.547148404,-1.450226096,-0.00246613
0.571695818,2.888989458,0.000885899,-0.680912899,,0.755873453,2.691791088,-0.122357861,-0.309997123,-0.007862065
0.571695818,2.888989458,0.000885899,-0.680912899,,0.758119131,1.236918211,-0.681654834,-1.774682616,0.004693282
0.573186752,0.379579234,0.00387466,-0.158466114,,0.758417771,1.371569873,-0.625035964,-1.640979517,0.00161018
0.573894086,2.944494729,0.000727812,-0.681611492,,0.759365437,2.911114412,-0.039302541,-0.089058214,-0.002786941
0.573894086,2.944494729,0.000727812,-0.681611492,,0.763121668,0.693637588,-0.925904319,-2.308355017,0.017729417
0.576092353,3,0.000599673,-0.681843003,,0.765986973,0.387959746,-1.075045424,-2.60469917,0.024437623
0.576092353,3,0.000599673,-0.681843003,,0.767924727,0.293958084,-1.122562892,-2.695291156,0.0262927
0.579083353,0.058456938,0.000678298,-0.025667095,,0.771236615,2.494870881,-0.19534842,-0.509266427,-0.010576195
0.579083353,0.058456938,0.000678298,-0.025667095,,0.771405082,2.409298676,-0.226720369,-0.595981783,-0.011110803
0.582615618,0.184913666,0.002070178,-0.079623238,,0.771461927,0.255755902,-1.142045342,-2.731980435,0.027107781
0.583278469,0.447683549,0.004518995,-0.184816852,,0.771559977,2.160344393,-0.31816194,-0.848235049,-0.010897356
0.583278469,0.447683549,0.004518995,-0.184816852,,0.771817599,2.076894567,-0.349093359,-0.932682012,-0.010307765
0.608695652,0,0,0,,0.772210196,1.832792667,-0.441147965,-1.179068391,-0.007360256
0.608695652,0,0,0,,0.772323917,1.750554298,-0.472843631,-1.261803864,-0.006023601
0.608695652,0,0,0,,0.773640871,1.097667905,-0.741424152,-1.912152179,0.008202098
0.612204157,0.531065826,0.005427249,-0.216187297,,0.773716926,2.756133117,-0.098624173,-0.245038415,-0.006782297
0.612204157,0.531065826,0.005427249,-0.216187297,,0.77374509,1.507800298,-0.568901248,-1.505030876,-0.001322487
0.612227917,0.126456729,0.001521705,-0.054937892,,0.774721327,1.180999774,-0.705210424,-1.829831688,0.006189763
0.615760182,0.252913457,0.002926781,-0.107726059,,0.77490011,1.425155361,-0.602548239,-1.587460312,0.000484205
0.615760182,0.252913457,0.002926781,-0.107726059,,0.775044233,0.843152866,-0.855723653,-2.162177063,0.014459564
0.618802189,0.61129095,0.006074961,-0.245478785,,0.775226238,2.850929423,-0.062823656,-0.149536962,-0.004532793
0.62540022,0.691516075,0.006666059,-0.273870324,,0.778641374,0.751444839,-0.898271482,-2.251719742,0.016757621
0.625851899,0.321017772,0.003680015,-0.135251729,,0.787537137,0.173128147,-1.184486374,-2.81100187,0.029126477
0.628431637,0.862670954,0.00758449,-0.331422485,,0.793483683,0.376283117,-1.080363034,-2.615365516,0.025631041
0.628431637,0.862670954,0.00758449,-0.331422485,,0.794353722,0.067805786,-1.239669084,-2.911810603,0.030970623
0.629519588,0.944359774,0.00790666,-0.357421373,,0.803723432,0.496740279,-1.020162214,-2.498734445,0.023403777
0.630607539,1.026048594,0.008156286,-0.382461089,,0.805537992,2.622468393,-0.148861006,-0.380075761,-0.009536534
0.631434663,2.158893734,0.00506876,-0.627421048,,0.805762207,2.284205128,-0.272533196,-0.722720658,-0.011768704
0.631434663,2.158893734,0.00506876,-0.627421048,,0.806594059,1.953966908,-0.394679818,-1.056756781,-0.00935211
0.631690099,2.076152098,0.005580967,-0.616151535,,0.806935089,0.971931832,-0.796347411,-2.0354047,0.011872706
0.631690099,2.076152098,0.005580967,-0.616151535,,0.807036826,1.628460733,-0.519979525,-1.384067609,-0.003847373
0.63169549,1.107737414,0.008333857,-0.406534876,,0.809459682,0.014455409,-1.267830022,-2.962468463,0.032306499
0.63169549,1.107737414,0.008333857,-0.406534876,,0.810884157,0.188355935,-1.176179103,-2.795803269,0.029809144
0.631701798,2.240972681,0.004550114,-0.637549431,,0.811018,1.301604173,-0.653017335,-1.709902646,0.003589573
0.631715627,1.995633874,0.006056051,-0.60416699,,0.811615661,2.985992909,-0.011941129,-0.014011636,-0.000500113
0.631741155,1.91511565,0.006503289,-0.591180833,,0.817461832,0.613246199,-0.96306164,-2.385487101,0.021116381
0.631766683,1.834597426,0.006916621,-0.577196349,,0.822801823,2.591344675,-0.160536475,-0.411562294,-0.010183352
0.631766683,1.834597426,0.006916621,-0.577196349,,0.823343511,2.316194872,-0.260846624,-0.690283945,-0.012017091
0.631879439,1.753056967,0.007295976,-0.562020644,,0.823382712,2.253189997,-0.283836047,-0.75411209,-0.011941235
0.631879439,1.753056967,0.007295976,-0.562020644,,0.823429535,2.657464424,-0.136260034,-0.344683074,-0.009177339
0.631968932,2.323051628,0.004024203,-0.646630502,,0.824211075,1.984864511,-0.382871551,-1.025499394,-0.009903314
0.631998252,0.7717412,0.00719745,-0.301355828,,0.824310432,1.923087667,-0.406066185,-1.087825336,-0.009090521
0.631998252,0.7717412,0.00719745,-0.301355828,,0.824676092,1.658657516,-0.507724783,-1.353673347,-0.00449442
0.632046704,1.67309244,0.007624354,-0.546151842,,0.82503576,1.597221796,-0.531976632,-1.41518937,-0.003214454
0.63206903,2.489976578,0.002965629,-0.661866814,,0.825230266,1.001747731,-0.782524887,-2.005811099,0.011422849
0.63206903,2.489976578,0.002965629,-0.661866814,,0.825585427,0.93733555,-0.811456034,-2.069045303,0.013112521
0.632213969,1.593127912,0.00790426,-0.529310968,,0.825727536,2.509204818,-0.190581431,-0.494723104,-0.011157572
0.632236067,2.405130575,0.003499425,-0.654663583,,0.825945452,2.398514706,-0.230881681,-0.606867454,-0.011887533
0.632236067,2.405130575,0.003499425,-0.654663583,,0.826413126,2.173021409,-0.313179723,-0.835280354,-0.011644562
0.632381234,1.513163385,0.008131549,-0.511502957,,0.826746369,2.065076654,-0.352982816,-0.944465375,-0.010810323
0.632381234,1.513163385,0.008131549,-0.511502957,,0.827208873,1.84401867,-0.435990043,-1.167470268,-0.007911604
0.632766777,1.190362093,0.008440684,-0.429895078,,0.827355974,1.73764097,-0.476861816,-1.274420545,-0.006046232
0.632766777,1.190362093,0.008440684,-0.429895078,,0.827624104,2.748896555,-0.102505622,-0.252337902,-0.007418454
0.633020002,1.270647998,0.00846506,-0.451635718,,0.828282593,2.962273502,-0.021729173,-0.037759105,-0.001349522
0.633226971,2.573148506,0.00246809,-0.667840197,,0.828704377,1.269693931,-0.666026123,-1.741319452,0.004533752
0.633273227,1.350933903,0.008423829,-0.472424265,,0.828749623,1.331484362,-0.640062044,-1.680026919,0.002984309
0.633526452,1.431219808,0.008319355,-0.492254707,,0.828953192,1.517691409,-0.56369476,-1.494637114,-0.001457477
0.633526452,1.431219808,0.008319355,-0.492254707,,0.829087147,0.578222563,-0.979725012,-2.419232877,0.022300752
0.634384912,2.656320434,0.001999226,-0.672740891,,0.829087591,1.081631791,-0.747053806,-1.927142029,0.009394014
0.635542853,2.739492362,0.001569585,-0.676572071,,0.829576442,2.871518306,-0.056512212,-0.128833048,-0.004262537
0.635542853,2.739492362,0.001569585,-0.676572071,,0.830447244,1.410787803,-0.607161868,-1.601176933,0.001052909
0.635943615,0.389122087,0.004410707,-0.162142707,,0.830485192,1.189423963,-0.700192416,-1.820743576,0.006606249
0.635943615,0.389122087,0.004410707,-0.162142707,,0.831220141,0.485063651,-1.025299207,-2.509424473,0.024557731
0.637039356,2.833484187,0.001145077,-0.679619434,,0.831954038,0.848814191,-0.851683042,-2.155629737,0.015554309
0.637039356,2.833484187,0.001145077,-0.679619434,,0.836607045,0.730187216,-0.906831362,-2.271341757,0.01873258
0.639237624,2.888989458,0.000931439,-0.680780481,,0.837151716,0.642456556,-0.948533559,-2.356697718,0.020963582
0.641435891,2.944494729,0.000747869,-0.681471545,,0.842617115,0.294235063,-1.120993862,-2.693245788,0.029082376
0.641840216,0.067999791,0.000876657,-0.029801781,,0.843559791,0.084415607,-1.230178036,-2.894584172,0.032824259
0.641840216,0.067999791,0.000876657,-0.029801781,,0.845596789,0.262054233,-1.137438959,-2.724120066,0.029831921
0.643634158,3,0.000597953,-0.68169483,,0.84658061,0.358766534,-1.088093178,-2.631005636,0.02789193
0.645372481,0.194456519,0.002415904,-0.083575803,,0.855160333,2.509590505,-0.190719343,-0.494318856,-0.01153054
0.664869303,0.472504364,0.005411055,-0.194178625,,0.855378249,2.398900394,-0.230856265,-0.606449144,-0.012275472
0.67498478,0.135999581,0.001808486,-0.058972361,,0.856223137,2.172944435,-0.313031155,-0.835285959,-0.012003067
0.67498478,0.135999581,0.001808486,-0.058972361,,0.856360066,2.749194852,-0.103045553,-0.252035372,-0.007668114
0.678517045,0.26245631,0.003352558,-0.111578209,,0.856556379,2.06499968,-0.352715834,-0.944442002,-0.011125922
0.678517045,0.26245631,0.003352558,-0.111578209,,0.857005719,1.843358565,-0.435746656,-1.167960584,-0.008092263
0.684782609,0,0,0,,0.857152821,1.736980866,-0.476547487,-1.27487015,-0.006150718
0.688608761,0.330560625,0.004175569,-0.139005267,,0.857542281,2.657818536,-0.136725658,-0.344321162,-0.009542891
0.688608761,0.330560625,0.004175569,-0.139005267,,0.857741787,2.591802529,-0.160850647,-0.411089831,-0.010594111
0.693794992,0.55588664,0.006403766,-0.225246145,,0.858283476,2.316652726,-0.260683645,-0.689772047,-0.01247484
0.693794992,0.55588664,0.006403766,-0.225246145,,0.858312405,2.871816603,-0.057260882,-0.128534202,-0.004404304
0.699857825,0.898196398,0.00865333,-0.342728656,,0.858550368,1.516843208,-0.563351262,-1.495183976,-0.00138079
0.699857825,0.898196398,0.00865333,-0.342728656,,0.858574488,0.936603623,-0.810909152,-2.069175418,0.013772089
0.700393023,0.636111765,0.007111587,-0.254249639,,0.85877047,2.253098621,-0.283774811,-0.75414056,-0.012392549
0.700945776,0.979885218,0.008976579,-0.368306905,,0.859598833,1.984773135,-0.382461152,-1.025442434,-0.010230351
0.701270345,2.200812053,0.005343304,-0.63260655,,0.859682564,1.922304051,-0.405850619,-1.088441651,-0.009365618
0.701270345,2.200812053,0.005343304,-0.63260655,,0.85974343,0.848197629,-0.851230854,-2.155704289,0.016186515
0.701470541,2.534661953,0.002961421,-0.665085685,,0.860044419,1.409939601,-0.606784297,-1.60167716,0.001222515
0.701470541,2.534661953,0.002961421,-0.665085685,,0.860048223,1.6578739,-0.507298229,-1.354168781,-0.004546166
0.701525781,2.118070417,0.005928322,-0.621874742,,0.860170859,1.596214888,-0.531608036,-1.415879662,-0.003202481
0.701537479,2.282891,0.004754337,-0.642199816,,0.860557324,0.207816363,-1.165185261,-2.775827577,0.031452826
0.701637578,2.44981595,0.003552346,-0.658475256,,0.860575094,1.079501197,-0.747150324,-1.928734911,0.009923477
0.701781217,2.035328781,0.006492278,-0.610080592,,0.861728763,0.564361122,-0.985668951,-2.431948064,0.023631277
0.701781217,2.035328781,0.006492278,-0.610080592,,0.861972695,1.187293369,-0.700278676,-1.822386949,0.007031272
0.701804614,2.364969947,0.004161379,-0.650744437,,0.862395338,2.962627614,-0.022799654,-0.037403445,-0.001394158
0.701804614,2.364969947,0.004161379,-0.650744437,,0.862609393,0.999218482,-0.782655427,-2.007658079,0.012143507
0.701806745,1.954810557,0.007010739,-0.597586521,,0.863884723,1.330477454,-0.639591253,-1.680578896,0.003269687
0.701832273,1.874292333,0.007494132,-0.584092221,,0.864396437,0.729570654,-0.906399423,-2.27137037,0.019465644
0.701832273,1.874292333,0.007494132,-0.584092221,,0.866083504,1.267164682,-0.666127719,-1.743316041,0.004946535
0.701945029,1.792751874,0.007942355,-0.569410851,,0.866906811,0.099643395,-1.221762861,-2.879348522,0.033584206
0.702033727,1.061574038,0.009218783,-0.392923869,,0.870140777,0.64172463,-0.948047556,-2.356692902,0.021920238
0.702033727,1.061574038,0.009218783,-0.392923869,,0.874590702,2.623280358,-0.149633779,-0.379241821,-0.010317001
0.702057785,1.711211414,0.008341969,-0.553711803,,0.875753875,0.442862484,-1.045207553,-2.549155667,0.02703118
0.702057785,1.711211414,0.008341969,-0.553711803,,0.876089929,2.284571605,-0.272306383,-0.722237839,-0.012680195
0.70222505,1.631246887,0.008681971,-0.537332303,,0.877303278,0.968670656,-0.795937123,-2.037381242,0.013253188
0.702392315,1.55128236,0.00896509,-0.519983555,,0.877353949,1.953091915,-0.394050722,-1.057316546,-0.009955486
0.702392315,1.55128236,0.00896509,-0.519983555,,0.877544057,1.626670208,-0.51918301,-1.385253521,-0.003887734
0.702628482,2.617833881,0.002414796,-0.670477136,,0.879107232,2.98634702,-0.014290606,-0.013657455,-0.000529578
0.703105014,1.144198717,0.009381703,-0.416838122,,0.883005701,0.017160159,-1.265432494,-2.957767158,0.035506004
0.70342444,0.807266643,0.00825711,-0.313126557,,0.883532226,1.298068016,-0.652642845,-1.712452575,0.004285371
0.703537533,1.469338782,0.009205112,-0.501203408,,0.890640862,0.582622563,-0.97605391,-2.413572905,0.024055833
0.703786423,2.701005809,0.001905852,-0.674795938,,0.892653361,0.615997374,-0.959842673,-2.381156113,0.023246897
0.703786423,2.701005809,0.001905852,-0.674795938,,0.903867264,0.139234558,-1.200254431,-2.840362989,0.034485258
0.704176301,1.226823395,0.00946379,-0.439755064,,0.905395543,0.840260769,-0.85363017,-2.162535677,0.017444031
0.704176301,1.226823395,0.00946379,-0.439755064,,0.908508305,2.757532335,-0.101218192,-0.243622594,-0.00792728
0.704429526,1.3071093,0.00945666,-0.461063042,,0.908992685,0.748552741,-0.896249715,-2.251913081,0.020108221
0.704682751,1.387395205,0.009377209,-0.481416796,,0.909296625,2.496680022,-0.1958947,-0.507362008,-0.012337947
0.704682751,1.387395205,0.009377209,-0.481416796,,0.909465091,2.411107817,-0.22667834,-0.594027639,-0.01292813
0.705282926,2.794997634,0.001391284,-0.678389763,,0.910017617,2.852328641,-0.066164951,-0.148130713,-0.005290865
0.706779429,2.888989458,0.000957532,-0.680625489,,0.910113178,0.488801751,-1.021552599,-2.50390866,0.027075954
0.706779429,2.888989458,0.000957532,-0.680625489,,0.910721179,0.035237217,-1.255355265,-2.939641661,0.036481501
0.706991055,0.716336889,0.007752574,-0.282352199,,0.911389378,2.159983334,-0.317393839,-0.84824515,-0.01255549
0.706991055,0.716336889,0.007752574,-0.282352199,,0.911647001,2.076533507,-0.34789605,-0.932585914,-0.011811633
0.708129344,0.203999372,0.002787098,-0.087509333,,0.911977849,1.829696325,-0.439964103,-1.181344914,-0.008164793
0.708129344,0.203999372,0.002787098,-0.087509333,,0.91209157,1.747457956,-0.471401261,-1.263931009,-0.006552746
0.708977696,2.944494729,0.000746445,-0.681308168,,0.912576148,1.50382165,-0.567274036,-1.507572246,-0.000915814
0.711175964,3,0.000572695,-0.681522275,,0.913731168,1.421176714,-0.600795968,-1.589831402,0.001227254
0.71753445,0.413942901,0.005274544,-0.171701957,,0.917081613,0.902215235,-0.824885093,-2.101718784,0.015935238
0.717927173,0.067999791,0.000987679,-0.029785314,,0.921338865,1.087673958,-0.741857607,-1.919634612,0.010638395
0.741273907,0.271999163,0.003803845,-0.11541004,,0.922419321,1.171005826,-0.705607735,-1.837498573,0.008247468
0.741273907,0.271999163,0.003803845,-0.11541004,,0.923683558,2.693533061,-0.124969738,-0.308223525,-0.009543075
0.741273907,0.271999163,0.003803845,-0.11541004,,0.923919254,0.362430984,-1.084504633,-2.625455421,0.030642635
0.741273907,0.271999163,0.003803845,-0.11541004,,0.925404058,0.690037037,-0.923471562,-2.30847536,0.022182846
0.741273907,0.271999163,0.003803845,-0.11541004,,0.92603278,2.552775571,-0.175893329,-0.450562079,-0.011936109
0.741273907,0.271999163,0.003803845,-0.11541004,,0.926422548,2.35479338,-0.246968932,-0.6510414,-0.013319522
0.746460138,0.497325178,0.006366752,-0.203434377,,0.927175542,2.912856384,-0.044061837,-0.087310291,-0.003358809
0.751071736,0.135999581,0.002027166,-0.058938958,,0.928383559,2.214572141,-0.297479193,-0.792981382,-0.013089918
0.760869565,0,0,0,,0.928584837,1.557826195,-0.545246702,-1.453527517,-0.002228494
0.770199596,0.355381439,0.00500768,-0.1487627,,0.928979602,2.021500341,-0.367943433,-0.988068831,-0.011330297
0.770199596,0.355381439,0.00500768,-0.1487627,,0.929012688,1.883215785,-0.419433166,-1.127406176,-0.009225234
0.770872052,2.579347328,0.002885704,-0.667966279,,0.929275796,1.692946847,-0.492105639,-1.31842539,-0.005423796
0.770872052,2.579347328,0.002885704,-0.667966279,,0.931257122,1.36661661,-0.622773906,-1.64378994,0.002816221
0.771039088,2.494501325,0.003531785,-0.661950068,,0.932858408,0.929227926,-0.81215036,-2.074949782,0.015482574
0.771106027,2.242730373,0.00554973,-0.637496339,,0.93446821,0.50418486,-1.013325225,-2.488407189,0.02749489
0.771106027,2.242730373,0.00554973,-0.637496339,,0.937895969,0.211480813,-1.161768852,-2.770109369,0.034517485
0.771206125,2.409655322,0.004203729,-0.654812692,,0.938044841,2.664438722,-0.135816908,-0.337617052,-0.010284651
0.771284013,0.933721841,0.009753877,-0.353832137,,0.939497704,1.031677242,-0.766019542,-1.97434589,0.01258594
0.771284013,0.933721841,0.009753877,-0.353832137,,0.940226002,2.579291928,-0.166549569,-0.423721856,-0.011749785
0.771361463,2.159988736,0.006209967,-0.627303469,,0.940522872,2.988498975,-0.015910871,-0.01150405,-0.000479483
0.771373161,2.32480932,0.00488887,-0.646553212,,0.940758957,0.018077058,-1.264118273,-2.95507012,0.038083065
0.771373161,2.32480932,0.00488887,-0.646553212,,0.941253341,2.932837185,-0.037050957,-0.067263223,-0.002674586
0.771616899,2.0772471,0.006850964,-0.616046453,,0.941422384,2.327768822,-0.25668205,-0.678381935,-0.013533226
0.771872336,1.994505464,0.007463382,-0.603727897,,0.941997477,1.224476129,-0.682134917,-1.784373953,0.006949951
0.771872336,1.994505464,0.007463382,-0.603727897,,0.942656879,0.298975135,-1.116430922,-2.685969868,0.032818406
0.771897864,1.91398724,0.008021201,-0.590724849,,0.942973159,2.241084416,-0.287839538,-0.766119365,-0.013382853
0.771897864,1.91398724,0.008021201,-0.590724849,,0.943219706,1.583481208,-0.534694365,-1.427753811,-0.002840217
0.772010619,1.83244678,0.008543232,-0.576538897,,0.943898745,1.909150928,-0.409447928,-1.101210411,-0.009765527
0.772029992,2.662519256,0.0022931,-0.672774359,,0.943936192,1.994812652,-0.377595471,-1.014912713,-0.011098951
0.772029992,2.662519256,0.0022931,-0.672774359,,0.944013971,1.666661419,-0.501995801,-1.344600298,-0.004842159
0.772123375,1.750906321,0.009014229,-0.561333128,,0.944368253,0.66836486,-0.933276284,-2.329074938,0.023329019
0.772236131,1.669365861,0.009427757,-0.545112257,,0.945636553,0.266794305,-1.132923534,-2.716797547,0.033654236
0.772236131,1.669365861,0.009427757,-0.545112257,,0.945799847,0.103381495,-1.218459422,-2.873391948,0.036919597
0.772371964,1.015410662,0.010071082,-0.378988269,,0.947807825,1.339315483,-0.633634947,-1.670625927,0.003712786
0.772371964,1.015410662,0.010071082,-0.378988269,,0.951875568,1.005944304,-0.77709549,-1.999360684,0.013579834
0.772403396,1.589401334,0.009772616,-0.528223825,,0.956695967,1.250508541,-0.670648223,-1.758399262,0.006362606
0.772403396,1.589401334,0.009772616,-0.528223825,,0.965201161,0.801506064,-0.86985281,-2.1990171,0.02001416
0.773443251,1.09803534,0.010300457,-0.403452686,,0.97110313,0.088926086,-1.225697943,-2.886391735,0.03828631
0.773526495,2.756511081,0.001682063,-0.676916712,,0.972416484,0.384761289,-1.072021196,-2.602571454,0.031896285
0.773548614,1.507457757,0.010071217,-0.50991287,,0.973446817,0.574896771,-0.977578848,-2.418959944,0.026848025
0.774514538,1.180660019,0.010439392,-0.426924539,,0.97514211,0.603011111,-0.963864801,-2.391683698,0.026105331
0.774693832,1.42551418,0.010296563,-0.4905932,,0.975872575,2.621059925,-0.152129861,-0.381459854,-0.011499632
0.774850628,0.842792087,0.009356415,-0.324696165,,0.976014665,2.797763528,-0.088302584,-0.203062646,-0.007385583
0.775022998,2.850502905,0.00115143,-0.679695445,,0.976052152,2.946052304,-0.033425655,-0.054013083,-0.002255663
0.775385826,0.580707454,0.007439642,-0.234196499,,0.978941172,2.453442028,-0.211933767,-0.551083545,-0.01356378
0.775385826,0.580707454,0.007439642,-0.234196499,,0.979399537,0.966968823,-0.793711678,-2.036992789,0.015304415
0.775585825,1.263284698,0.010489575,-0.449396876,,0.979824613,2.284344096,-0.272194091,-0.722258387,-0.01395703
0.775585825,1.263284698,0.010489575,-0.449396876,,0.981223724,1.624161265,-0.517712649,-1.386699039,-0.003807906
0.77583905,1.343570603,0.010444125,-0.470270981,,0.981803669,1.951349936,-0.393102551,-1.058489814,-0.010724282
0.77583905,1.343570603,0.010444125,-0.470270981,,0.98238568,2.117341042,-0.332274487,-0.891089019,-0.012939963
0.776519501,2.944494729,0.00072121,-0.681118796,,0.982385781,1.461352232,-0.582570281,-1.54895331,0.000524309
0.776519501,2.944494729,0.00072121,-0.681118796,,0.982679819,1.786529888,-0.454961539,-1.224139847,-0.007599988
0.778417243,0.751862333,0.008839939,-0.29438561,,0.989816958,0.196834107,-1.168332261,-2.782524898,0.036978765
0.778717769,3,0.00052131,-0.681322771,,0.989995683,0.515019821,-1.006481994,-2.476415829,0.029064437
0.781983858,0.660932579,0.008202852,-0.262910216,,0.991365321,1.293115698,-0.651659547,-1.715676061,0.005482149
0.781983858,0.660932579,0.008202852,-0.262910216,,0.994441901,0.852084908,-0.84553956,-2.148981913,0.019193064
0.7842163,0.203999372,0.003109671,-0.087458526,,0.996771515,0.400144399,-1.063626619,-2.587033069,0.032403144
0.7842163,0.203999372,0.003109671,-0.087458526,,0.99794777,0.646895363,-0.942017678,-2.348528193,0.025527063
0.794014129,0.067999791,0.001101008,-0.029766648,,0.998111341,0.758533685,-0.888953809,-2.2400633,0.022167949
0.799125284,0.438763716,0.006206122,-0.1811551,,0.999786956,1.124124124,-0.723577496,-1.882259352,0.010785154
0.799125284,0.438763716,0.006206122,-0.1811551,,1.010218697,0.879097599,-0.832634963,-2.122228799,0.018722503
0.817956223,0.275632515,0.004279929,-0.11681434,,1.011004979,2.745573268,-0.108208047,-0.25568019,-0.009133511
0.817956223,0.275632515,0.004279929,-0.11681434,,1.012544625,2.842274839,-0.073194519,-0.158244643,-0.006235971
0.827158693,0.135999581,0.002250419,-0.058901193,,1.014671012,0.015227788,-1.26451026,-2.955240688,0.041514089
0.827158693,0.135999581,0.002250419,-0.058901193,,1.01512024,0.182378698,-1.175372186,-2.795528679,0.038360629
0.828050973,0.522145992,0.007386115,-0.212581382,,1.016120007,2.496845981,-0.196849547,-0.50711037,-0.013657741
0.828050973,0.522145992,0.007386115,-0.212581382,,1.016291859,2.409553901,-0.227715007,-0.59546606,-0.014275497
0.836956522,0,0,0,,1.01660025,0.305740797,-1.111206473,-2.677200907,0.035562635
0.840273562,2.624032703,0.002736377,-0.670503786,,1.017075535,0.736861508,-0.898576882,-2.260650177,0.023352422
0.840273562,2.624032703,0.002736377,-0.670503786,,1.018885607,1.502890778,-0.564798605,-1.507119294,-0.00044816
0.840273562,2.624032703,0.002736377,-0.670503786,,1.020063841,1.4185848,-0.598879847,-1.590877321,0.002000475
0.840273562,2.624032703,0.002736377,-0.670503786,,1.02013745,0.267538616,-1.130829256,-2.713752919,0.036632714
0.840273562,2.624032703,0.002736377,-0.670503786,,1.02021932,2.159413107,-0.316730484,-0.848445459,-0.013713267
0.840273562,2.624032703,0.002736377,-0.670503786,,1.020467722,1.827378756,-0.438687222,-1.182824654,-0.008595579
0.840440599,2.5391867,0.00343514,-0.665083365,,1.020482121,2.074286062,-0.347464353,-0.93437267,-0.0128106
0.840440599,2.5391867,0.00343514,-0.665083365,,1.020583729,1.743487517,-0.470534403,-1.266924436,-0.006721869
0.840607635,2.454340698,0.004168787,-0.658541018,,1.02255702,0.071428772,-1.23411873,-2.901334754,0.040905802
0.840607635,2.454340698,0.004168787,-0.658541018,,1.024965687,2.988498975,-0.019560872,-0.011504138,-0.000524214
0.840774672,2.369494695,0.004923079,-0.650875399,,1.025366261,2.716478929,-0.119021139,-0.285039312,-0.0100114
0.840774672,2.369494695,0.004923079,-0.650875399,,1.026622424,2.86225564,-0.066381156,-0.138146574,-0.005626965
0.840941708,2.284648692,0.005684424,-0.642086297,,1.030313229,2.523362337,-0.187634254,-0.48026346,-0.013546997
0.840941708,2.284648692,0.005684424,-0.642086297,,1.031291695,2.382529343,-0.23732033,-0.62279338,-0.014554292
0.840941708,2.284648692,0.005684424,-0.642086297,,1.033520476,1.528545792,-0.554123482,-1.48138031,-0.001104161
0.840941708,2.284648692,0.005684424,-0.642086297,,1.034808921,2.185925383,-0.307106359,-0.821608225,-0.014079861
0.840941708,2.284648692,0.005684424,-0.642086297,,1.035321904,1.717202089,-0.480256334,-1.293080772,-0.006105746
0.840941708,2.284648692,0.005684424,-0.642086297,,1.035353779,1.853313898,-0.428630633,-1.15666494,-0.009194646
0.841197145,2.201907055,0.006422091,-0.632433719,,1.035438711,2.047598373,-0.356961487,-0.961204628,-0.012584583
0.841197145,2.201907055,0.006422091,-0.632433719,,1.036614545,1.391283673,-0.609558361,-1.617689031,0.002952061
0.841452581,2.119165419,0.007143143,-0.621715164,,1.038161062,0.434588321,-1.045173914,-2.55257852,0.032995527
0.841452581,2.119165419,0.007143143,-0.621715164,,1.039205155,0.928214117,-0.809315987,-2.07352956,0.017811958
0.841708018,2.036423783,0.007837028,-0.60993307,,1.04097257,1.078826582,-0.742052368,-1.925915827,0.012930315
0.841708018,2.036423783,0.007837028,-0.60993307,,1.041333122,2.946052304,-0.036117819,-0.054013359,-0.002411352
0.841770065,2.718024528,0.002023157,-0.675196802,,1.0420492,2.891487192,-0.056253903,-0.108768133,-0.004623094
0.841770065,2.718024528,0.002023157,-0.675196802,,1.042074742,1.163833297,-0.705041175,-1.84230449,0.010184387
0.841963454,1.953682147,0.008493921,-0.597090588,,1.043378934,2.661291118,-0.139089536,-0.340772749,-0.011457135
0.841963454,1.953682147,0.008493921,-0.597090588,,1.045512349,0.324002239,-1.101098798,-2.658716117,0.036246986
0.841963454,1.953682147,0.008493921,-0.597090588,,1.045517121,2.577821931,-0.16863082,-0.42515723,-0.012996388
0.841963454,1.953682147,0.008493921,-0.597090588,,1.049300694,2.326678307,-0.257055482,-0.679266739,-0.01483081
0.841963454,1.953682147,0.008493921,-0.597090588,,1.050175228,0.250378457,-1.139012441,-2.729196256,0.038280104
0.841963454,1.953682147,0.008493921,-0.597090588,,1.050820915,2.241701804,-0.287127206,-0.765189417,-0.01460613
0.84207621,1.872141687,0.009094633,-0.583401204,,1.050874124,0.811991321,-0.862304945,-2.186636877,0.021877011
0.84207621,1.872141687,0.009094633,-0.583401204,,1.051033357,1.581691846,-0.532560468,-1.428203168,-0.002527324
0.842188966,1.790601228,0.009642363,-0.568689878,,1.051811973,1.663233197,-0.500663582,-1.346840892,-0.004731692
0.842188966,1.790601228,0.009642363,-0.568689878,,1.052505639,1.908183499,-0.407837441,-1.101412071,-0.010371196
0.842301721,1.709060768,0.010129811,-0.552961261,,1.052542348,1.99215747,-0.376918856,-1.016950605,-0.011873838
0.842301721,1.709060768,0.010129811,-0.552961261,,1.053350434,1.053093643,-0.752973904,-1.950893314,0.01400355
0.842414477,1.627520309,0.010550345,-0.536220419,,1.054156245,0.699848685,-0.914960163,-2.295584478,0.025571422
0.842414477,1.627520309,0.010550345,-0.536220419,,1.056585725,0.143675027,-1.194917912,-2.83109856,0.040993947
0.842414477,1.627520309,0.010550345,-0.536220419,,1.056773231,1.189865709,-0.693376938,-1.816359854,0.009560423
0.842414477,1.627520309,0.010550345,-0.536220419,,1.057847629,1.003418989,-0.774871416,-1.999482838,0.015737679
0.842414477,1.627520309,0.010550345,-0.536220419,,1.060019934,1.333291216,-0.632771752,-1.674708584,0.004978051
0.842414477,1.627520309,0.010550345,-0.536220419,,1.068732957,1.246233996,-0.668984352,-1.760543726,0.007887266
0.842710201,0.969247285,0.010883037,-0.364729926,,1.069602914,0.844058354,-0.846830707,-2.154888489,0.02130577
0.842710201,0.969247285,0.010883037,-0.364729926,,1.073386707,0.786264065,-0.873564131,-2.211062001,0.023316615
0.842710201,0.969247285,0.010883037,-0.364729926,,1.074602968,2.787178354,-0.095117219,-0.213724546,-0.00846074
0.842710201,0.969247285,0.010883037,-0.364729926,,1.076371692,0.503907028,-1.009482081,-2.484527464,0.032360129
0.842710201,0.969247285,0.010883037,-0.364729926,,1.077240398,0.303449042,-1.110843529,-2.677362495,0.038052586
0.842710201,0.969247285,0.010883037,-0.364729926,,1.078366076,0.268027441,-1.129142262,-2.711292293,0.039012012
0.843266568,2.812016352,0.001388231,-0.678520889,,1.081677625,2.452774611,-0.212891828,-0.551632683,-0.014812313
0.843266568,2.812016352,0.001388231,-0.678520889,,1.084323779,0.63578257,-0.944710526,-2.356803605,0.028532227
0.843559695,1.545576731,0.010913859,-0.518379784,,1.084637515,1.459658254,-0.58025199,-1.549057706,0.00124439
0.843559695,1.545576731,0.010913859,-0.518379784,,1.084883555,0.388808255,-1.066969485,-2.595108282,0.036029826
0.843781488,1.051871964,0.011189526,-0.389740244,,1.085176673,0.560522054,-0.98129845,-2.429579828,0.030933687
0.843781488,1.051871964,0.011189526,-0.389740244,,1.086871966,0.588636394,-0.967500779,-2.402349032,0.030110729
0.844704913,1.463633154,0.011199069,-0.499528237,,1.08701845,1.783506217,-0.453737506,-1.226157102,-0.007764678
0.844704913,1.463633154,0.011199069,-0.499528237,,1.087052755,2.115986128,-0.331622541,-0.89197367,-0.013890349
0.844763071,2.906008176,0.000853463,-0.680483293,,1.089012379,2.98634702,-0.023343615,-0.013657336,-0.000661752
0.844763071,2.906008176,0.000853463,-0.680483293,,1.090243479,0.916280359,-0.813035719,-2.083876973,0.019382892
0.844852775,1.134496643,0.011395832,-0.413762919,,1.091314863,2.81089776,-0.08718297,-0.189827497,-0.007815924
0.844852775,1.134496643,0.011395832,-0.413762919,,1.091651389,2.752640176,-0.107920597,-0.248542783,-0.009639319
0.845850131,1.381689577,0.011400831,-0.479671926,,1.092289179,2.932837185,-0.043179979,-0.067263641,-0.00311662
0.845850131,1.381689577,0.011400831,-0.479671926,,1.093215446,2.86225564,-0.068826376,-0.138145878,-0.005994591
0.845924062,1.217121321,0.011503483,-0.436790902,,1.093400754,0.182378698,-1.17361199,-2.792741352,0.041745742
0.845924062,1.217121321,0.011503483,-0.436790902,,1.096410561,2.672371915,-0.136342969,-0.329561901,-0.011757545
0.846259574,3,0.000441215,-0.681093444,,1.098526539,2.48425244,-0.202047923,-0.519763281,-0.014755334
0.846259574,3,0.000441215,-0.681093444,,1.099176367,2.564402118,-0.174141673,-0.438692925,-0.01380824
0.846259574,3,0.000441215,-0.681093444,,1.099295209,0.071428772,-1.232648527,-2.898454602,0.044428572
0.846259574,3,0.000441215,-0.681093444,,1.099484079,2.42069349,-0.224192167,-0.584059344,-0.015211843
0.846276816,0.878317531,0.010492333,-0.336061705,,1.101376207,0.835133483,-0.849889304,-2.162699459,0.022423565
0.846276816,0.878317531,0.010492333,-0.336061705,,1.102010713,1.490113575,-0.567461393,-1.518530293,0.000429905
0.846881912,0.359014791,0.00559694,-0.150104517,,1.103714918,2.339030003,-0.252698222,-0.666641856,-0.015451295
0.846995349,1.299746,0.011514585,-0.458817237,,1.104259944,0.800285869,-0.86598309,-2.196535359,0.023685266
0.846995349,1.299746,0.011514585,-0.458817237,,1.104285019,1.427248816,-0.592763677,-1.580858383,0.002421818
0.846995349,1.299746,0.011514585,-0.458817237,,1.104372214,2.147459113,-0.32019346,-0.860140184,-0.014392287
0.846995349,1.299746,0.011514585,-0.458817237,,1.104514284,1.752302526,-0.465124283,-1.257186146,-0.00700536
0.846995349,1.299746,0.011514585,-0.458817237,,1.104689836,1.814294081,-0.441722002,-1.195133879,-0.0085257
0.846995349,1.299746,0.011514585,-0.458817237,,1.104807871,2.084304908,-0.342752229,-0.923812479,-0.013632713
0.849843431,0.787387777,0.0099719,-0.306216655,,1.105187575,0.725525364,-0.901100706,-2.269156136,0.026231086
0.849843431,0.787387777,0.0099719,-0.306216655,,1.105527445,1.568403012,-0.536231803,-1.440646708,-0.001920395
0.853410046,0.696458023,0.009319774,-0.275204615,,1.105681368,2.229110449,-0.291266179,-0.777717309,-0.015102365
0.853410046,0.696458023,0.009319774,-0.275204615,,1.106534607,1.673879098,-0.495079882,-1.33551426,-0.004930643
0.856976661,0.605528268,0.008534812,-0.243035397,,1.107514201,1.894941604,-0.411626472,-1.114241408,-0.010338484
0.856976661,0.605528268,0.008534812,-0.243035397,,1.107561686,2.003564355,-0.371844387,-1.005090505,-0.012414892
0.856976661,0.605528268,0.008534812,-0.243035397,,1.111610692,0.371494612,-1.075015652,-2.610816402,0.037559029
0.856976661,0.605528268,0.008534812,-0.243035397,,1.11393407,0.015227788,-1.262802377,-2.951413479,0.046197018
0.856976661,0.605528268,0.008534812,-0.243035397,,1.114358056,1.013560026,-0.768427788,-1.988132352,0.01656772
0.856976661,0.605528268,0.008534812,-0.243035397,,1.114852244,1.116420744,-0.723131846,-1.88727767,0.012995836
0.856976661,0.605528268,0.008534812,-0.243035397,,1.115537155,1.343459718,-0.626755493,-1.663581925,0.005264267
0.860898616,0.207632724,0.00349822,-0.088907048,,1.117008729,0.908762209,-0.815536779,-2.090481805,0.020281353
0.870101086,0.067999791,0.001216844,-0.029745676,,1.117148217,0.197245885,-1.165201129,-2.777624302,0.042429473
0.870101086,0.067999791,0.001216844,-0.029745676,,1.119235082,2.932837185,-0.044370089,-0.067263599,-0.003195395
0.8758076,0.442397068,0.006900052,-0.18243413,,1.120161349,2.86225564,-0.06985712,-0.138144999,-0.006142736
0.894638539,0.279265867,0.004775169,-0.118206249,,1.121000127,2.98634702,-0.024899336,-0.013657333,-0.000682
0.894638539,0.279265867,0.004775169,-0.118206249,,1.123302611,2.81089776,-0.088271923,-0.189826571,-0.008041834
0.902008283,0.930821469,0.011532708,-0.352614985,,1.125441842,2.67242893,-0.136991243,-0.329494963,-0.012048013
0.902008283,0.930821469,0.011532708,-0.352614985,,1.126114711,2.752707859,-0.108906745,-0.248469144,-0.00993142
0.903841009,0.139632934,0.002543455,-0.060397257,,1.1268077,1.230848696,-0.673551216,-1.774461751,0.009229576
0.904733289,0.525779344,0.008175807,-0.213797243,,1.128207649,2.564459132,-0.174552062,-0.438610964,-0.014132343
0.904733289,0.525779344,0.008175807,-0.213797243,,1.129546129,1.085872919,-0.735956387,-1.916887868,0.014339039
0.905574898,0.839891715,0.011052087,-0.323454743,,1.131194633,0.73733708,-0.894628341,-2.256888328,0.026594766
0.907207034,2.663922478,0.002547712,-0.672458344,,1.132300967,1.147324078,-0.709120404,-1.856498917,0.012227754
0.907207034,2.663922478,0.002547712,-0.672458344,,1.132989861,2.484320122,-0.202340542,-0.51964925,-0.015150622
0.908703537,2.757914302,0.001790772,-0.676558567,,1.133463147,2.338908041,-0.252732044,-0.666685912,-0.015777135
0.909141513,0.748961961,0.010431476,-0.293123205,,1.134310105,0.478474,-1.020363246,-2.507091538,0.035219417
0.909327076,2.581161645,0.003282904,-0.667699068,,1.134798496,2.420548707,-0.224413949,-0.584139731,-0.015615619
0.909327076,2.581161645,0.003282904,-0.667699068,,1.134896168,1.567033602,-0.53588887,-1.441546102,-0.001727899
0.909494112,2.496315642,0.004077184,-0.661717551,,1.135429597,2.228988486,-0.291111597,-0.777721762,-0.015391388
0.909661149,2.41146964,0.004900291,-0.654611547,,1.13590333,1.672509688,-0.494789575,-1.336478372,-0.004825823
0.909828186,2.326623637,0.005737055,-0.646380548,,1.136331401,1.429102842,-0.590974972,-1.578425822,0.002654127
0.909828186,2.326623637,0.005737055,-0.646380548,,1.136874615,1.488487935,-0.567017716,-1.51953973,0.000737359
0.91020004,2.851906126,0.001127736,-0.679289951,,1.137858023,1.894073438,-0.411296119,-1.114827052,-0.010421255
0.910986543,3,0.000335112,-0.680842728,,1.137905507,2.002696189,-0.371631572,-1.005736344,-0.012575264
0.911335505,2.24236828,0.006577127,-0.637090081,,1.139378186,1.750676886,-0.464839241,-1.25838806,-0.006956185
0.911335505,2.24236828,0.006577127,-0.637090081,,1.139686632,2.147314329,-0.319860899,-0.860104537,-0.014691194
0.911590942,2.159626644,0.007381065,-0.626892637,,1.140711287,1.813263473,-0.441240296,-1.195771611,-0.00855024
0.911631676,1.585411303,0.011694137,-0.526980428,,1.140829322,2.0832743,-0.342620503,-0.924629287,-0.013884399
0.911631676,1.585411303,0.011694137,-0.526980428,,1.141054038,2.787246036,-0.097226984,-0.213650511,-0.008969692
0.911696543,2.94589795,0.000582742,-0.680660506,,1.141123306,1.006041876,-0.770833886,-1.994773042,0.017407358
0.911696543,2.94589795,0.000582742,-0.680660506,,1.14253245,1.345021516,-0.625202724,-1.661483892,0.005528294
0.911846378,2.076885007,0.008159793,-0.615629657,,1.144210149,0.642654,-0.93942589,-2.348231121,0.03021799
0.912065417,1.910882038,0.009599208,-0.589833481,,1.148646702,0.088926086,-1.222192247,-2.879777106,0.046366208
0.912065417,1.910882038,0.009599208,-0.589833481,,1.151455364,2.45269751,-0.213406814,-0.551600395,-0.015613948
0.912101815,1.994143371,0.008902281,-0.6033042,,1.151547799,1.45988664,-0.578031016,-1.547634194,0.001784078
0.912101815,1.994143371,0.008902281,-0.6033042,,1.152850634,0.299037493,-1.111073201,-2.678808315,0.041280844
0.912178173,1.829341579,0.010228227,-0.57560586,,1.153798885,0.269198975,-1.126545856,-2.707354114,0.042146918
0.912290929,1.747801119,0.010794506,-0.560358825,,1.153802995,1.232410494,-0.671947205,-1.772299018,0.009586081
0.912403684,1.66626066,0.011290567,-0.544097426,,1.157903803,1.78084997,-0.452965447,-1.227995299,-0.007738836
0.912403684,1.66626066,0.011290567,-0.544097426,,1.158388624,2.114810737,-0.331154392,-0.892755726,-0.014443231
0.912708128,0.658032206,0.009669216,-0.261630281,,1.161037242,0.461160357,-1.028187389,-2.522799696,0.036754406
0.912708128,0.658032206,0.009669216,-0.261630281,,1.161319422,1.076948048,-0.73873611,-1.92480528,0.015283487
0.912776894,1.503467726,0.012046804,-0.508619369,,1.163529672,0.353375457,-1.082767091,-2.626290144,0.040153536
0.913043478,0,0,0,,1.164347348,1.149178104,-0.707179472,-1.853875234,0.012732427
0.913043478,0,0,0,,1.164752541,0.892948836,-0.821061857,-2.104509654,0.022028705
0.913043478,0,0,0,,1.166520385,0.835193674,-0.84758183,-2.160690058,0.024156512
0.913922111,1.421524149,0.012310938,-0.489251236,,1.167727894,2.946052304,-0.041833632,-0.054013464,-0.002712888
0.915067329,1.339580572,0.012481372,-0.468882411,,1.167977621,0.213412335,-1.155394957,-2.76015952,0.044253427
0.915067329,1.339580572,0.012481372,-0.468882411,,1.168375227,0.546890368,-0.985325511,-2.439923263,0.034241366
0.920492549,1.00538812,0.012131453,-0.375587625,,1.168443972,2.891487192,-0.061393695,-0.10876688,-0.005191286
0.920492549,1.00538812,0.012131453,-0.375587625,,1.168949593,0.805838671,-0.861136706,-2.18915792,0.025276878
0.921563836,1.088012798,0.01241843,-0.400159823,,1.170217207,0.654465715,-0.932841237,-2.335919558,0.030654276
0.922635122,1.170637477,0.012595867,-0.423742469,,1.170387726,0.580265179,-0.968866913,-2.407639024,0.033195062
0.923564228,0.362648144,0.006206988,-0.151431352,,1.172394165,0.103793273,-1.213658893,-2.864608445,0.047147253
0.923706409,1.253262156,0.012665713,-0.446328492,,1.176147192,0.755253733,-0.884595628,-2.23805112,0.027293416
0.923706409,1.253262156,0.012665713,-0.446328492,,1.179555561,2.661558554,-0.142009085,-0.340450747,-0.012838913
0.937580932,0.211266077,0.003905072,-0.090344734,,1.181693748,2.578089367,-0.170693217,-0.42478431,-0.014503979
0.942619647,0.594509784,0.009350534,-0.238888446,,1.182322338,2.988498975,-0.027232548,-0.011504056,-0.000608258
0.942619647,0.594509784,0.009350534,-0.238888446,,1.183395015,0.968153707,-0.786270549,-2.030591448,0.019741822
0.946783401,0.071633143,0.001406031,-0.031293002,,1.183979075,2.86225564,-0.072394541,-0.138143724,-0.006492416
0.946783401,0.071633143,0.001406031,-0.031293002,,1.186646388,1.340617121,-0.625495385,-1.664871514,0.006231708
0.952489916,0.44603042,0.007616206,-0.18369555,,1.187000496,1.094635229,-0.730050381,-1.906773154,0.015153809
0.952489916,0.44603042,0.007616206,-0.18369555,,1.18750377,0.018077058,-1.259839886,-2.945552104,0.049712662
0.961306364,0.892395653,0.01214379,-0.340279226,,1.18754393,1.126264964,-0.71625404,-1.875750145,0.013999287
0.961306364,0.892395653,0.01214379,-0.340279226,,1.188792817,1.575268375,-0.530973863,-1.432449004,-0.001665256
0.964872979,0.801465898,0.011564449,-0.310630963,,1.188840299,2.326106218,-0.257104584,-0.679452204,-0.016339011
0.968439594,0.710536144,0.010834829,-0.279817094,,1.189571433,1.656809726,-0.49926984,-1.351323622,-0.004187473
0.968439594,0.710536144,0.010834829,-0.279817094,,1.190360521,2.241129715,-0.286493887,-0.765230338,-0.015983334
0.971320855,0.282899219,0.005290463,-0.119584864,,1.19425963,1.400404144,-0.600688718,-1.60564736,0.004228323
0.971320855,0.282899219,0.005290463,-0.119584864,,1.194838981,1.904111207,-0.406335879,-1.104182529,-0.010794415
0.974140507,2.703812252,0.002289329,-0.674125519,,1.19487569,1.988085178,-0.375845992,-1.019942837,-0.012577654
0.974140507,2.703812252,0.002289329,-0.674125519,,1.194900947,2.716811877,-0.123386677,-0.284665694,-0.011574338
0.97563701,2.797804076,0.001492725,-0.677630865,,1.19535941,1.253559901,-0.66151965,-1.750472933,0.009476012
0.975713511,3,0.000197972,-0.680558607,,1.198932557,2.842331853,-0.079989432,-0.158181657,-0.007377675
0.976260548,2.62105142,0.003069356,-0.66988767,,1.199847915,2.523695285,-0.18953247,-0.479744801,-0.015473745
0.976423512,2.94589795,0.000476461,-0.680387034,,1.200103276,0.526337172,-0.994419602,-2.458572255,0.036064979
0.977133513,2.8917959,0.000807309,-0.679767458,,1.201260962,0.594286983,-0.960955138,-2.392983558,0.033777875
0.977133513,2.8917959,0.000807309,-0.679767458,,1.201740302,0.422694165,-1.046274963,-2.558242461,0.039538448
0.97838059,2.538290587,0.003906402,-0.664581146,,1.20501316,2.381817113,-0.237977628,-0.623125705,-0.016503493
0.97838059,2.538290587,0.003906402,-0.664581146,,1.205025728,1.520548816,-0.552018266,-1.486466945,0.00023661
0.978547626,2.453444584,0.004798004,-0.658036563,,1.206314726,0.691187619,-0.913938578,-2.299113114,0.0305167
0.978714663,2.368598582,0.005710965,-0.650365395,,1.206827156,1.709205113,-0.478706353,-1.298850839,-0.005680119
0.978714663,2.368598582,0.005710965,-0.650365395,,1.20707765,1.426335861,-0.589704941,-1.579729898,0.003469117
0.97979063,0.966962303,0.012816334,-0.363651071,,1.207485567,2.745906215,-0.113740317,-0.255313345,-0.010827707
0.980221983,2.284343225,0.006632002,-0.641628362,,1.208530386,2.185213154,-0.305799274,-0.821523514,-0.015652262
0.980523325,0.143266286,0.002853566,-0.06188427,,1.209652122,1.009189718,-0.766919689,-1.98972337,0.018825891
0.980523325,0.143266286,0.002853566,-0.06188427,,1.210687105,0.14116608,-1.192679759,-2.827325018,0.048041133
0.980848874,1.543302298,0.012866353,-0.517442963,,1.212553339,1.848244051,-0.426446414,-1.159918494,-0.009473077
0.980848874,1.543302298,0.012866353,-0.517442963,,1.21263827,2.042528526,-0.3560117,-0.965098988,-0.01367093
0.981620883,1.624151654,0.01247246,-0.535073463,,1.214418317,1.19898618,-0.683963384,-1.803646164,0.011801491
0.981729303,2.200087868,0.00754657,-0.631782079,,1.215402922,2.497056966,-0.198768268,-0.506645984,-0.015937563
0.981729303,2.200087868,0.00754657,-0.631782079,,1.215694618,0.035726042,-1.249607031,-2.927493593,0.050732749
0.981984739,2.117346232,0.008413743,-0.621039666,,1.217386154,1.496455601,-0.561178739,-1.510103864,0.001156438
0.981994092,1.461358721,0.013199695,-0.498564415,,1.219044606,2.408898686,-0.228770152,-0.595726523,-0.016575185
0.98216738,1.86808193,0.010763357,-0.582260389,,1.222432802,1.734622376,-0.468615959,-1.273272146,-0.006374303
0.98216738,1.86808193,0.010763357,-0.582260389,,1.224284607,2.157832712,-0.315177734,-0.849013584,-0.015462123
0.982203778,1.951343263,0.010033754,-0.596281504,,1.227036005,1.820939499,-0.436176919,-1.187035953,-0.00876507
0.982240175,2.034604596,0.009246097,-0.609232632,,1.22742991,2.069094252,-0.346324875,-0.938276661,-0.01420117
0.982240175,2.034604596,0.009246097,-0.609232632,,1.228158437,0.577768182,-0.968097962,-2.407914457,0.0352945
0.982280136,1.78654147,0.011414116,-0.567496197,,1.229013249,0.543193181,-0.985088775,-2.44121863,0.036536265
0.982392892,1.705001011,0.011991734,-0.551715513,,1.23028825,2.946052304,-0.044906593,-0.05401331,-0.002861578
0.982392892,1.705001011,0.011991734,-0.551715513,,1.231285397,1.024089081,-0.759470495,-1.974504972,0.018757462
0.98313931,1.379415144,0.013433896,-0.478682922,,1.231931166,0.896034658,-0.817159148,-2.099366968,0.023662353
0.98313931,1.379415144,0.013433896,-0.478682922,,1.2339587,1.179684563,-0.691482584,-1.82206468,0.012880804
0.989130435,0,0,0,,1.238586064,2.798030964,-0.096854666,-0.202773611,-0.009321063
0.990376275,0.51476086,0.008890824,-0.209534733,,1.238746024,0.657613557,-0.928886913,-2.33040562,0.032790454
0.99177839,1.293096728,0.013680776,-0.45663666,,1.241255792,0.459415149,-1.026441962,-2.521366527,0.03986882
0.998274896,1.041528954,0.013407256,-0.386220478,,1.242167713,0.351664634,-1.081240458,-2.624750636,0.04343114
0.998274896,1.041528954,0.013407256,-0.386220478,,1.243325818,0.758339555,-0.880679034,-2.232728541,0.029201547
0.998351114,0.647013722,0.010555917,-0.25753822,,1.245582153,0.017648985,-1.258873038,-2.943273061,0.052602048
0.999346183,1.124153633,0.013666587,-0.410352616,,1.246067434,1.307851351,-0.636920948,-1.695741752,0.00826003
1.000246544,0.366281496,0.006838809,-0.152742082,,1.246615662,0.211701512,-1.154163756,-2.758436001,0.047815369
1.000246544,0.366281496,0.006838809,-0.152742082,,1.246771694,1.462254665,-0.573830842,-1.543337366,0.002640708
1.00041747,1.206778312,0.013807077,-0.433493382,,1.249784333,2.621597858,-0.157152377,-0.380764351,-0.014411869
1.00041747,1.206778312,0.013807077,-0.433493382,,1.252612714,0.102048065,-1.212692236,-2.862688418,0.050999874
1.014263248,0.214899429,0.004331009,-0.091770792,,1.253417872,0.839185273,-0.842503252,-2.153911547,0.026427478
1.014263248,0.214899429,0.004331009,-0.091770792,,1.254571205,0.296824494,-1.109238744,-2.676728789,0.045664718
1.020604446,0.853969836,0.012711054,-0.32772446,,1.254657404,2.453137374,-0.213959684,-0.550946837,-0.016715743
1.020604446,0.853969836,0.012711054,-0.32772446,,1.255519456,0.266985976,-1.1247921,-2.705223583,0.046609083
1.022870358,0.071633143,0.001533767,-0.031265687,,1.25584708,0.80983027,-0.856054509,-2.182329565,0.027623393
1.024171061,0.763040082,0.012024018,-0.297592456,,1.258319264,1.611240808,-0.514699593,-1.395443434,-0.002367901
1.024171061,0.763040082,0.012024018,-0.297592456,,1.260500817,2.28319337,-0.271572665,-0.722478038,-0.016852938
1.028262633,0.583491299,0.01016226,-0.234704873,,1.261403972,0.643698416,-0.934775933,-2.342982868,0.034064863
1.028262633,0.583491299,0.01016226,-0.234704873,,1.26277262,1.776034125,-0.451895283,-1.23136254,-0.007464182
1.038132902,0.435011935,0.008216545,-0.179323261,,1.263245959,2.988498975,-0.031619976,-0.011504114,-0.000651627
1.039088712,0.928536487,0.013464184,-0.351492113,,1.263976429,2.932837185,-0.051256953,-0.067262964,-0.00361695
1.04044048,3,2.74897E-05,-0.680237696,,1.264258627,2.112696661,-0.33039957,-0.894151732,-0.015094688
1.041073979,2.743702026,0.00195843,-0.675499607,,1.265609033,0.473614348,-1.018472073,-2.506709053,0.040325803
1.041073979,2.743702026,0.00195843,-0.675499607,,1.26745567,1.093050049,-0.72768432,-1.905961507,0.016896338
1.041150481,2.94589795,0.000339768,-0.680077512,,1.267913449,1.119694368,-0.716056478,-1.879872455,0.015863566
1.041860481,2.8917959,0.000707953,-0.679468238,,1.268099319,1.943158746,-0.390470717,-1.064252587,-0.011828563
1.042570482,2.83769385,0.001126714,-0.678407759,,1.271122465,1.358020676,-0.615249552,-1.645674333,0.00675387
1.042570482,2.83769385,0.001126714,-0.678407759,,1.272435032,0.915901651,-0.806528571,-2.07864775,0.023974647
1.04319402,2.660941194,0.002780438,-0.671784948,,1.277789435,0.086820277,-1.220326895,-2.875978557,0.05259956
1.045314062,2.578180362,0.003670923,-0.66700082,,1.278929912,2.912913398,-0.058937616,-0.087252675,-0.004656947
1.047434103,2.495419529,0.004612153,-0.661144723,,1.280010606,1.269213734,-0.651766292,-1.732846364,0.010275425
1.047434103,2.495419529,0.004612153,-0.661144723,,1.283940485,1.383952393,-0.604152424,-1.61978396,0.005962133
1.04760114,2.410573527,0.005601838,-0.654035294,,1.284869915,1.038041939,-0.751194593,-1.959161433,0.019461625
1.04760114,2.410573527,0.005601838,-0.654035294,,1.285743886,2.665121565,-0.143337218,-0.3367914,-0.01378082
1.048003171,0.286532572,0.005826665,-0.120949196,,1.286620936,0.744476521,-0.885579438,-2.244536865,0.031079052
1.048003171,0.286532572,0.005826665,-0.120949196,,1.287017213,1.163022075,-0.696581708,-1.836852501,0.014554939
1.048003171,0.286532572,0.005826665,-0.120949196,,1.287925048,2.579974771,-0.171827556,-0.422764135,-0.015572975
1.048003171,0.286532572,0.005826665,-0.120949196,,1.293549812,0.367536405,-1.071409728,-2.607294801,0.045062394
1.048003171,0.286532572,0.005826665,-0.120949196,,1.294068307,0.930801013,-0.798899608,-2.063383111,0.023964385
1.048003171,0.286532572,0.005826665,-0.120949196,,1.29496019,1.567080194,-0.530633131,-1.438509532,-0.000571937
1.04910846,2.32631817,0.006605333,-0.645853414,,1.295754455,1.650260406,-0.498427562,-1.355975936,-0.00340046
1.050066073,1.501193292,0.014062492,-0.507607145,,1.297708105,2.326308108,-0.256782074,-0.678830518,-0.017347722
1.050066073,1.501193292,0.014062492,-0.507607145,,1.298328506,2.694215904,-0.133934859,-0.307421703,-0.013137641
1.05061578,2.242062813,0.007607966,-0.636560214,,1.299087337,0.193287678,-1.16244793,-2.773571741,0.050751604
1.050838082,1.582042649,0.013686758,-0.525748027,,1.29925888,2.239623703,-0.286165905,-0.766185607,-0.016850619
1.051211291,1.419249715,0.014367534,-0.488214497,,1.299550989,1.249912117,-0.659115835,-1.751250421,0.011370857
1.051211291,1.419249715,0.014367534,-0.488214497,,1.300430342,2.852596076,-0.080652189,-0.14784954,-0.007545829
1.05161009,1.662892005,0.013213612,-0.542904235,,1.302533384,0.573205126,-0.967644059,-2.40931169,0.038134144
1.0521231,2.157807457,0.008594153,-0.626157796,,1.303253462,0.544079768,-0.981992086,-2.437329001,0.039238859
1.0521231,2.157807457,0.008594153,-0.626157796,,1.303480055,2.553336451,-0.180943988,-0.449644967,-0.016149345
1.052269343,1.825281821,0.011984189,-0.574368554,,1.306192741,1.429488895,-0.584840928,-1.574302835,0.004553223
1.052269343,1.825281821,0.011984189,-0.574368554,,1.307317697,1.898753167,-0.405550448,-1.108194752,-0.010761893
1.052305741,1.908543154,0.011228672,-0.588938309,,1.307320616,1.542986979,-0.539631194,-1.462101121,0.000398702
1.052342138,1.991804487,0.010403856,-0.602440649,,1.307355144,1.984414891,-0.374805053,-1.022483085,-0.012828493
1.052378536,2.07506582,0.009520595,-0.614870692,,1.308814836,2.758070268,-0.112891791,-0.243023645,-0.011262011
1.052378536,2.07506582,0.009520595,-0.614870692,,1.309278885,0.73056138,-0.891297532,-2.257112027,0.032347693
1.052382099,1.743741362,0.012649398,-0.559069926,,1.311360101,1.675677668,-0.488207938,-1.330428882,-0.004136543
1.052382099,1.743741362,0.012649398,-0.559069926,,1.31173955,2.353389681,-0.247643228,-0.651459347,-0.01752512
1.05408258,0.69951766,0.011791079,-0.275777609,,1.312596049,0.625916062,-0.941479153,-2.358072147,0.036509041
1.056610281,0.143266286,0.003104789,-0.061829213,,1.315013101,2.212243262,-0.295353333,-0.793652476,-0.016691718
1.057572978,1.003103138,0.014131091,-0.374459964,,1.315973712,0.48929815,-1.008817914,-2.489461604,0.041727388
1.059850371,1.332931299,0.014684524,-0.466677164,,1.316298141,1.498227098,-0.556968735,-1.506168509,0.002120344
1.065217391,0,0,0,,1.317383094,0.845055668,-0.837271736,-2.145849098,0.028053901
1.068489451,1.246612883,0.014874814,-0.444040518,,1.317903053,0.381735604,-1.063295822,-2.59258146,0.045603978
1.076019261,0.503742375,0.009597269,-0.20523851,,1.319419281,0.014867187,-1.258768396,-2.942230502,0.056411891
1.076057244,1.077669789,0.014706725,-0.39662316,,1.32026683,0.810208054,-0.853354779,-2.179537955,0.029538292
1.076057244,1.077669789,0.014706725,-0.39662316,,1.321800363,1.871448615,-0.415074567,-1.135269215,-0.01002219
1.077128531,1.160294467,0.014930205,-0.420313152,,1.322146783,2.010980618,-0.365064327,-0.99570501,-0.013437378
1.077128531,1.160294467,0.014930205,-0.420313152,,1.322157378,2.98634702,-0.035751744,-0.013657403,-0.000809292
1.079902528,0.81554402,0.013229034,-0.314952764,,1.322747989,2.496645865,-0.199978789,-0.506852989,-0.017032903
1.079902528,0.81554402,0.013229034,-0.314952764,,1.324264058,0.17805989,-1.169850381,-2.786855858,0.052376008
1.079902528,0.81554402,0.013229034,-0.314952764,,1.326317922,2.410224526,-0.228670999,-0.594070684,-0.017608834
1.079902528,0.81554402,0.013229034,-0.314952764,,1.327394483,1.323747426,-0.627207999,-1.677891312,0.00894653
1.079902528,0.81554402,0.013229034,-0.314952764,,1.3287832,0.069737307,-1.228361646,-2.889664609,0.055556949
1.0839941,0.635995237,0.011442156,-0.253406272,,1.330094014,0.297948043,-1.106263613,-2.672180428,0.048935153
1.08588953,0.355263011,0.007310042,-0.148266431,,1.331219693,0.262526442,-1.124800914,-2.705960546,0.050126025
1.08588953,0.355263011,0.007310042,-0.148266431,,1.331520451,1.730465207,-0.466853159,-1.275592937,-0.005796092
1.090350204,0.214899429,0.004700956,-0.091687446,,1.333406067,0.96592289,-0.781431725,-2.027767986,0.02359297
1.090350204,0.214899429,0.004700956,-0.091687446,,1.334398924,2.154760316,-0.314784048,-0.851316711,-0.016079981
1.098386794,0.890110671,0.014069626,-0.339112647,,1.336032958,1.815081664,-0.435284328,-1.191277625,-0.00838559
1.098386794,0.890110671,0.014069626,-0.339112647,,1.337482256,2.067770228,-0.344823287,-0.938616028,-0.014628798
1.098957315,0.071633143,0.001664681,-0.031235522,,1.337725237,1.217313525,-0.671367322,-1.782068049,0.013396932
1.105167449,3,-0.000178643,-0.679876314,,1.339908805,2.962695296,-0.044962507,-0.037338116,-0.002192669
1.105167449,3,-0.000178643,-0.679876314,,1.342610881,1.354531224,-0.613928021,-1.647177446,0.007981162
1.105877449,2.94589795,0.000170611,-0.67972826,,1.343064168,0.862742849,-0.828056953,-2.127682279,0.028095085
1.105877449,2.94589795,0.000170611,-0.67972826,,1.347164305,0.793689253,-0.859994925,-2.194464246,0.031038651
1.10658745,2.8917959,0.000579314,-0.679129939,,1.34960714,0.693067998,-0.907600385,-2.291680501,0.035173959
1.10658745,2.8917959,0.000579314,-0.679129939,,1.350570178,2.872149551,-0.076301507,-0.128188524,-0.006926699
1.107297451,2.83769385,0.001041685,-0.67807924,,1.350591065,1.300834285,-0.635781239,-1.699723915,0.010260918
1.107297451,2.83769385,0.001041685,-0.67807924,,1.351929072,2.624217799,-0.158415342,-0.378018646,-0.015342216
1.108007451,2.7835918,0.001551969,-0.676574346,,1.354864311,1.420647819,-0.586542531,-1.58173872,0.005571487
1.108007451,2.7835918,0.001551969,-0.676574346,,1.356401122,0.418268619,-1.043259727,-2.555765435,0.045926566
1.108007451,2.7835918,0.001551969,-0.676574346,,1.359003988,0.314804052,-1.096506569,-2.654660967,0.049656476
1.108007451,2.7835918,0.001551969,-0.676574346,,1.360430713,1.604154089,-0.513916613,-1.40034004,-0.001269297
1.108007451,2.7835918,0.001551969,-0.676574346,,1.361107227,0.244449385,-1.133387776,-2.721725764,0.052069641
1.108007451,2.7835918,0.001551969,-0.676574346,,1.361415763,2.749877694,-0.117407802,-0.251262446,-0.011956157
1.109814047,0.752021598,0.013048211,-0.293602959,,1.364711757,0.14027274,-1.189009116,-2.820757686,0.055420998
1.109814047,0.752021598,0.013048211,-0.293602959,,1.36521651,2.282566267,-0.271142264,-0.722558016,-0.017641975
1.110127493,2.700830968,0.002412702,-0.673384814,,1.366868399,2.658755976,-0.147450236,-0.34314925,-0.014682398
1.110127493,2.700830968,0.002412702,-0.673384814,,1.367935937,1.509562665,-0.550550961,-1.493690028,0.002319581
1.112247534,2.618070136,0.003354669,-0.669124992,,1.368863694,1.033525153,-0.74976206,-1.960606661,0.021709502
1.112247534,2.618070136,0.003354669,-0.669124992,,1.370394575,2.592595186,-0.169122323,-0.409909215,-0.016140767
1.113905619,0.572472814,0.010969892,-0.230483809,,1.371010992,1.158505288,-0.695110996,-1.838533057,0.016519862
1.113905619,0.572472814,0.010969892,-0.230483809,,1.374168057,1.349240021,-0.614837089,-1.651452488,0.00871907
1.114367576,2.535309304,0.004358402,-0.663791956,,1.374462933,0.844599819,-0.835146468,-2.144005794,0.029789464
1.114367576,2.535309304,0.004358402,-0.663791956,,1.375103897,1.575552794,-0.524450011,-1.428298935,-7.29383E-05
1.116487617,2.452548471,0.005405041,-0.657384127,,1.375413789,2.962668478,-0.047007822,-0.03736123,-0.002252913
1.116487617,2.452548471,0.005405041,-0.657384127,,1.375679333,0.810393837,-0.851007874,-2.177097315,0.031250457
1.116487617,2.452548471,0.005405041,-0.657384127,,1.376104043,1.087207455,-0.725821356,-1.907992147,0.019630806
1.116487617,2.452548471,0.005405041,-0.657384127,,1.37627338,1.938817358,-0.389371458,-1.067211535,-0.011741941
1.116487617,2.452548471,0.005405041,-0.657384127,,1.376561822,1.113851774,-0.714183559,-1.881968116,0.018519577
1.116487617,2.452548471,0.005405041,-0.657384127,,1.376580843,2.509561119,-0.19628669,-0.493691686,-0.017401071
1.11687106,0.964677322,0.01481944,-0.362475335,,1.37895633,1.634327172,-0.501658287,-1.370035562,-0.002174234
1.11687106,0.964677322,0.01481944,-0.362475335,,1.379750236,0.926193446,-0.79747761,-2.064611391,0.026523907
1.117994937,2.368293115,0.0064923,-0.649759273,,1.379968117,1.317326057,-0.62775055,-1.682624629,0.010120485
1.117994937,2.368293115,0.0064923,-0.649759273,,1.380478938,2.87212696,-0.07773399,-0.128212096,-0.007076527
1.119283272,1.459084287,0.015277522,-0.49747241,,1.381198655,2.397772628,-0.232902443,-0.606424187,-0.018101837
1.119283272,1.459084287,0.015277522,-0.49747241,,1.381447508,1.416190604,-0.587292917,-1.585381075,0.006148978
1.119283272,1.459084287,0.015277522,-0.49747241,,1.381873377,2.31471507,-0.260327446,-0.690095904,-0.017947344
1.119283272,1.459084287,0.015277522,-0.49747241,,1.383918502,2.250062674,-0.281867584,-0.755140874,-0.017488464
1.119283272,1.459084287,0.015277522,-0.49747241,,1.385232919,1.24530455,-0.657585691,-1.753092682,0.013197816
1.119283272,1.459084287,0.015277522,-0.49747241,,1.386092864,1.715510005,-0.47066068,-1.2893841,-0.004948098
1.119502257,2.284037758,0.00758529,-0.641020952,,1.388163256,0.728569681,-0.889073577,-2.255700963,0.035046351
1.119502257,2.284037758,0.00758529,-0.641020952,,1.388317006,2.986320202,-0.039734162,-0.01368437,-0.000852377
1.12005528,1.539933644,0.014928933,-0.516120085,,1.388473783,0.296825732,-1.104900919,-2.670345772,0.051587169
1.12005528,1.539933644,0.014928933,-0.516120085,,1.389451344,0.261892665,-1.123242858,-2.703631364,0.052809356
1.120827289,1.620783,0.014471996,-0.533787157,,1.389708417,2.166413875,-0.30999645,-0.839144643,-0.016491583
1.120827289,1.620783,0.014471996,-0.533787157,,1.389926198,0.623963604,-0.939400275,-2.356534192,0.039370197
1.121009577,2.199782402,0.008666805,-0.631171107,,1.391324522,2.749855104,-0.118439722,-0.251270428,-0.012189024
1.121009577,2.199782402,0.008666805,-0.631171107,,1.391929923,1.824963829,-0.429978701,-1.180480629,-0.008458802
1.121599297,1.701632356,0.013912961,-0.550467546,,1.393303861,0.487345692,-1.006914665,-2.487732573,0.044868293
1.121599297,1.701632356,0.013912961,-0.550467546,,1.393465896,1.906403854,-0.400485934,-1.099306835,-0.010837965
1.122371306,1.782481713,0.0132589,-0.566155388,,1.393696796,2.05388969,-0.348517225,-0.95191388,-0.014464823
1.122371306,1.782481713,0.0132589,-0.566155388,,1.393832682,1.970353794,-0.377738097,-1.035460883,-0.012529172
1.122371306,1.782481713,0.0132589,-0.566155388,,1.394519135,1.50510545,-0.551287736,-1.497389678,0.002837276
1.122371306,1.782481713,0.0132589,-0.566155388,,1.396787424,0.379743905,-1.061535311,-2.590668611,0.049031437
1.122371306,1.782481713,0.0132589,-0.566155388,,1.402373383,2.658729158,-0.148346608,-0.343142394,-0.014995132
1.122371306,1.782481713,0.0132589,-0.566155388,,1.402544572,0.17805989,-1.167493495,-2.782795992,0.056132015
1.122407704,1.865743046,0.012485019,-0.581271522,,1.402562159,0.570679566,-0.965035483,-2.40722422,0.041975836
1.122407704,1.865743046,0.012485019,-0.581271522,,1.403282238,0.541554208,-0.979431404,-2.435188561,0.043157731
1.122444101,1.949004379,0.011629884,-0.595323274,,1.405312928,2.592358363,-0.169839811,-0.410092359,-0.016461116
1.122444101,1.949004379,0.011629884,-0.595323274,,1.405521389,0.069737307,-1.226333603,-2.885532375,0.059459644
1.122480499,2.032265712,0.01070444,-0.608305273,,1.405995435,2.509361623,-0.196664735,-0.493818774,-0.017663515
1.122480499,2.032265712,0.01070444,-0.608305273,,1.406199991,0.910910084,-0.803314581,-2.078362179,0.027941768
1.122516897,2.115527045,0.009720704,-0.620212633,,1.406661073,1.570261591,-0.525321242,-1.432743769,0.000487987
1.122516897,2.115527045,0.009720704,-0.620212633,,1.409979619,1.259196922,-0.650710709,-1.738647214,0.013118848
1.122516897,2.115527045,0.009720704,-0.620212633,,1.410613247,2.397573133,-0.232999392,-0.606500471,-0.018329614
1.122516897,2.115527045,0.009720704,-0.620212633,,1.412183802,0.742641322,-0.881384737,-2.241024009,0.035276369
1.122516897,2.115527045,0.009720704,-0.620212633,,1.41679173,2.314478246,-0.260221034,-0.690132227,-0.018172158
1.122516897,2.115527045,0.009720704,-0.620212633,,1.418006504,1.63084329,-0.501568418,-1.372565301,-0.001654268
1.123775888,0.423993451,0.008803206,-0.174920725,,1.418682339,0.014867187,-1.256359132,-2.936780896,0.061603375
1.123775888,0.423993451,0.008803206,-0.174920725,,1.418988028,1.712575245,-0.470628182,-1.291593545,-0.004585362
1.125973856,0.284836267,0.006289095,-0.120150674,,1.420071894,2.250016055,-0.281526654,-0.754927884,-0.017679045
1.125973856,0.284836267,0.006289095,-0.120150674,,1.420163384,2.166374603,-0.309545739,-0.838905229,-0.016597763
1.127922352,1.372765871,0.015672175,-0.476445296,,1.421612249,0.364599292,-1.068445263,-2.603872697,0.050665559
1.127922352,1.372765871,0.015672175,-0.476445296,,1.422352409,2.623954158,-0.160012011,-0.37819565,-0.015979509
1.132697238,0.143266286,0.003362174,-0.061768419,,1.424151763,2.053850419,-0.347875814,-0.951586811,-0.014487723
1.132697238,0.143266286,0.003362174,-0.061768419,,1.424825086,1.822029069,-0.430020943,-1.182793474,-0.008197199
1.135355326,1.039243973,0.015473159,-0.385035964,,1.425615699,1.01363892,-0.75616876,-1.977745021,0.024058144
1.135355326,1.039243973,0.015473159,-0.385035964,,1.426421146,0.192753796,-1.158840593,-2.76750705,0.05682651
1.136561432,1.286447455,0.015934238,-0.454316676,,1.428289002,1.169234402,-0.688069112,-1.825982288,0.017367596
1.136561432,1.286447455,0.015934238,-0.454316676,,1.429986074,1.970307175,-0.376830041,-1.034987608,-0.012477495
1.139725566,0.688499175,0.012750344,-0.271694642,,1.430886174,1.408581501,-0.588359224,-1.591382321,0.007262918
1.139725566,0.688499175,0.012750344,-0.271694642,,1.431038063,1.595379003,-0.514682999,-1.407299404,-0.000174597
1.141304348,0,0,0,,1.43251607,1.902919971,-0.400624812,-1.102145322,-0.010616959
1.145200512,1.200129039,0.016054855,-0.431095197,,1.436288255,2.282282824,-0.270694458,-0.722383177,-0.01805911
1.145200512,1.200129039,0.016054855,-0.431095197,,1.439179034,1.357923489,-0.608595808,-1.640868767,0.009523655
1.146511047,0.818603654,0.014181839,-0.315732649,,1.440317119,0.639181157,-0.929926244,-2.339469741,0.040607204
1.146511047,0.818603654,0.014181839,-0.315732649,,1.440722945,2.85249011,-0.087063969,-0.147943509,-0.008323368
1.153839592,1.113810623,0.016025932,-0.406789681,,1.440991575,1.477319704,-0.560435816,-1.523454862,0.004613278
1.153839592,1.113810623,0.016025932,-0.406789681,,1.443953457,2.988476385,-0.042505515,-0.011526715,-0.000749156
1.153839592,1.113810623,0.016025932,-0.406789681,,1.4440649,1.331039741,-0.619417231,-1.667075651,0.010754448
1.153839592,1.113810623,0.016025932,-0.406789681,,1.44452218,0.469097089,-1.014129504,-2.502645276,0.047673843
1.153839592,1.113810623,0.016025932,-0.406789681,,1.448527586,0.84155039,-0.833402225,-2.143720883,0.03224423
1.153839592,1.113810623,0.016025932,-0.406789681,,1.449107439,2.757964301,-0.117871282,-0.243072789,-0.012335944
1.153839592,1.113810623,0.016025932,-0.406789681,,1.44955226,0.812735886,-0.846775184,-2.171550714,0.033531357
1.161662247,0.49272389,0.010294686,-0.200908115,,1.451476946,1.935286856,-0.388589822,-1.069577911,-0.011472808
1.161662247,0.49272389,0.010294686,-0.200908115,,1.452065453,0.998355558,-0.761827193,-1.991496284,0.025462589
1.163860215,0.353566707,0.007880706,-0.147453466,,1.453035702,1.183126774,-0.681047539,-1.811476545,0.01734303
1.164995313,0.893170305,0.015062563,-0.339840451,,1.45358883,2.912781474,-0.068085787,-0.087379455,-0.00529209
1.16719689,3,-0.000411777,-0.679488328,,1.453804237,1.282478279,-0.639107558,-1.714312566,0.013033711
1.167906891,2.94589795,-2.39E-05,-0.679352589,,1.455333007,0.086820277,-1.21551934,-2.866467333,0.061549285
1.16832089,0.213203124,0.005052453,-0.090893876,,1.457075012,1.080111904,-0.725429111,-1.911760602,0.021983755
1.168616892,2.8917959,0.000426906,-0.678765363,,1.457473561,0.894233437,-0.808713865,-2.092293447,0.030217961
1.169326892,2.83769385,0.000934283,-0.677724549,,1.457618446,1.111741638,-0.711602668,-1.880928262,0.020598663
1.169326892,2.83769385,0.000934283,-0.677724549,,1.460722605,2.495710094,-0.201581948,-0.507421623,-0.018244183
1.169637086,0.624976752,0.012327797,-0.249233266,,1.462279984,0.759073648,-0.871457609,-2.222800069,0.036290445
1.169637086,0.624976752,0.012327797,-0.249233266,,1.462559165,1.516958074,-0.543924612,-1.483780943,0.00333661
1.175044271,0.071633143,0.001798911,-0.031202354,,1.462873192,0.293295237,-1.104144609,-2.66971188,0.055123198
1.175044271,0.071633143,0.001798911,-0.031202354,,1.463696672,0.26386825,-1.119653904,-2.697713179,0.056211051
1.176422566,0.755081232,0.013974059,-0.294411639,,1.464292538,2.409288756,-0.229258873,-0.594455203,-0.018698908
1.177640232,2.743970227,0.001924905,-0.674801429,,1.464337666,0.653252798,-0.922079955,-2.324725249,0.040908466
1.177640232,2.743970227,0.001924905,-0.674801429,,1.464458267,2.932705261,-0.062185964,-0.06739257,-0.004197121
1.178200046,1.426596581,0.016311169,-0.489421289,,1.469347005,0.453952476,-1.020824213,-2.515834334,0.049314191
1.178200046,1.426596581,0.016311169,-0.489421289,,1.472846583,0.347229995,-1.075553282,-2.61769115,0.053594488
1.179760274,2.661209395,0.002913581,-0.671110233,,1.472987424,2.69408398,-0.138965143,-0.307424433,-0.014618362
1.181880315,2.578448563,0.00397716,-0.666344577,,1.475253168,2.552171452,-0.183823038,-0.450475214,-0.017708767
1.183479579,0.967736956,0.015845165,-0.363150914,,1.476709269,0.209197237,-1.148348522,-2.749006343,0.058733171
1.184000357,2.495687731,0.00509495,-0.660502502,,1.476806645,0.571490229,-0.961606769,-2.402709825,0.044829578
1.184000357,2.495687731,0.00509495,-0.660502502,,1.477253611,2.154576107,-0.312567867,-0.85014872,-0.016531347
1.186839126,1.340278165,0.016671546,-0.467979921,,1.477661458,0.536915228,-0.978739445,-2.435858737,0.046298797
1.187539994,2.4099998,0.006294656,-0.65331153,,1.479209581,0.101514183,-1.206726464,-2.851114334,0.062347298
1.187539994,2.4099998,0.006294656,-0.65331153,,1.480336944,2.067586019,-0.341910653,-0.937125907,-0.014780727
1.188219688,1.494751443,0.016192075,-0.505484142,,1.483093903,1.538116529,-0.534817768,-1.462329209,0.002788267
1.188219688,1.494751443,0.016192075,-0.505484142,,1.483512663,2.352224682,-0.247601534,-0.651759005,-0.018736195
1.188991696,1.575600799,0.015765398,-0.523695575,,1.485821335,1.716699169,-0.466697354,-1.285953541,-0.004102904
1.189047314,2.325744444,0.007481075,-0.645126492,,1.486995498,1.12823341,-0.7031407,-1.863652713,0.020618032
1.189763705,1.656450156,0.015225096,-0.540924705,,1.487089992,1.223670042,-0.662320429,-1.770562759,0.01635275
1.190535713,1.737299512,0.014578089,-0.55716541,,1.488473777,1.061968873,-0.731992175,-1.928086711,0.023639177
1.190535713,1.737299512,0.014578089,-0.55716541,,1.489606921,2.578787181,-0.175652731,-0.423613852,-0.017407648
1.190554634,2.241489087,0.008661834,-0.635827516,,1.489817396,2.664790145,-0.148655126,-0.336929677,-0.015564602
1.192061953,2.15723373,0.009819148,-0.625417442,,1.490333842,1.801315626,-0.4354037,-1.202020053,-0.007059982
1.192061953,2.15723373,0.009819148,-0.625417442,,1.491708063,2.945946338,-0.059494195,-0.054116937,-0.003479642
1.195009926,1.821197878,0.013850241,-0.5729473,,1.492326966,0.017648985,-1.252846964,-2.929718822,0.065490067
1.195009926,1.821197878,0.013850241,-0.5729473,,1.492861716,2.212013929,-0.293224237,-0.79244361,-0.017477954
1.195046324,1.904459211,0.012972049,-0.58756837,,1.492931189,0.9618357,-0.776397494,-2.025135519,0.028285936
1.195082722,1.987720544,0.012010445,-0.601122879,,1.497585644,1.420200598,-0.580872255,-1.577784814,0.007965315
1.195119119,2.070981877,0.010977518,-0.613605383,,1.499936184,2.325103838,-0.256263353,-0.678905211,-0.018680061
1.195119119,2.070981877,0.010977518,-0.613605383,,1.499995398,2.010751285,-0.360928592,-0.993565993,-0.013362386
1.195478206,1.253959749,0.016887988,-0.445441785,,1.502599042,0.689969254,-0.902685341,-2.28740837,0.040744465
1.199548605,0.56145433,0.011773044,-0.22622442,,1.503458793,1.658539477,-0.487822893,-1.342989386,-0.001710847
1.199548605,0.56145433,0.011773044,-0.22622442,,1.505321674,0.588194813,-0.952154053,-2.385143815,0.045251418
1.199548605,0.56145433,0.011773044,-0.22622442,,1.506522087,2.239194875,-0.284105169,-0.765064826,-0.01787863
1.199548605,0.56145433,0.011773044,-0.22622442,,1.507131253,0.518936908,-0.986501854,-2.451501878,0.048249056
1.199548605,0.56145433,0.011773044,-0.22622442,,1.509749322,0.416307067,-1.038430631,-2.549606793,0.052559148
1.199548605,0.56145433,0.011773044,-0.22622442,,1.513899054,1.854310424,-0.415480929,-1.148933835,-0.008654306
1.201746573,0.422297146,0.009476987,-0.174091997,,1.514436344,1.628665,-0.498705139,-1.372164923,-0.000397763
1.201963845,1.042303607,0.016524312,-0.385659167,,1.514797637,1.113986087,-0.708058995,-1.876336409,0.02199576
1.201963845,1.042303607,0.016524312,-0.385659167,,1.51681935,1.079351285,-0.723073313,-1.909935091,0.023633461
1.203944541,0.283139963,0.006758322,-0.119340689,,1.517518901,0.138661805,-1.185161816,-2.81354478,0.063147344
1.203944541,0.283139963,0.006758322,-0.119340689,,1.518098922,1.981250798,-0.370638714,-1.022661434,-0.012503854
1.204117286,1.167641333,0.016951693,-0.421815708,,1.520503707,1.294097376,-0.631341649,-1.700442854,0.013975416
1.204117286,1.167641333,0.016951693,-0.421815708,,1.520671083,0.035092265,-1.242285356,-2.911432391,0.066536534
1.206334085,0.691558809,0.013643348,-0.272533996,,1.520776881,2.797817819,-0.108085535,-0.202915516,-0.011254466
1.210667923,0.141569982,0.003591786,-0.060985021,,1.521075733,1.194979397,-0.672956323,-1.797177204,0.018467363
1.213119566,0.821663288,0.015155828,-0.316485744,,1.521504549,2.988476385,-0.047625585,-0.011526647,-0.000789503
1.213119566,0.821663288,0.015155828,-0.316485744,,1.52545672,1.372953125,-0.598746474,-1.623104797,0.010571965
1.217391304,0,0,0,,1.528051552,2.620556121,-0.163350879,-0.381442431,-0.016908418
1.217391304,0,0,0,,1.529871354,1.881575705,-0.405236245,-1.121533135,-0.009426425
1.217391304,0,0,0,,1.530342586,1.346069377,-0.609491158,-1.649236069,0.011868507
1.229226332,3,-0.000681829,-0.679055708,,1.530563323,0.997956832,-0.758462276,-1.988340342,0.027770317
1.229936333,2.94589795,-0.00025182,-0.678932957,,1.532185719,2.451255123,-0.216099094,-0.551897778,-0.019023246
1.230646333,2.8917959,0.000244417,-0.678357404,,1.534424824,0.893842567,-0.805430161,-2.088999452,0.032685169
1.230646333,2.8917959,0.000244417,-0.678357404,,1.534779077,0.570731776,-0.959520229,-2.400280537,0.047180183
1.231603832,0.896229939,0.016076915,-0.340539067,,1.535733843,0.536048872,-0.976733335,-2.433489715,0.048708942
1.236245605,0.628036387,0.013181905,-0.250105336,,1.535765224,1.443072865,-0.570067321,-1.554011045,0.007700276
1.236245605,0.628036387,0.013181905,-0.250105336,,1.537313581,1.576567376,-0.517700934,-1.422806371,0.002049997
1.23711682,1.394108875,0.017353952,-0.481187075,,1.539231246,0.758682778,-0.868230807,-2.219270884,0.039019955
1.23711682,1.394108875,0.017353952,-0.481187075,,1.541330121,2.28207339,-0.26978104,-0.721758267,-0.018467049
1.237120564,1.109332168,0.017340832,-0.405112214,,1.542835535,0.652854072,-0.918865207,-2.320955594,0.043901596
1.237120564,1.109332168,0.017340832,-0.405112214,,1.544495754,1.182977709,-0.676996891,-1.807868991,0.019614731
1.238959673,2.798072277,0.001228363,-0.676235243,,1.548066261,0.841044788,-0.829176363,-2.139334212,0.035569144
1.239632932,0.491027586,0.011066138,-0.200062131,,1.548252377,0.453113841,-1.018041146,-2.512171852,0.052742644
1.239632932,0.491027586,0.011066138,-0.200062131,,1.549090934,0.812230285,-0.842564761,-2.167098913,0.03692875
1.2418309,0.351870403,0.008460918,-0.146625698,,1.550083247,0.017443281,-1.251318003,-2.926196752,0.068667211
1.243031085,0.758140866,0.014921176,-0.295194291,,1.550197319,0.346407883,-1.072997054,-2.61395483,0.057170509
1.2457559,1.307790459,0.017672978,-0.459334634,,1.551602935,2.112326135,-0.325221884,-0.891458772,-0.015682315
1.246291575,0.21150682,0.005407913,-0.090091681,,1.551661186,2.945946338,-0.063207946,-0.054116153,-0.003615264
1.247136462,1.462263736,0.017266286,-0.49756917,,1.554060006,0.208375125,-1.146075019,-2.745083011,0.062594596
1.247273013,2.704348654,0.002377798,-0.672742168,,1.554441123,1.012599462,-0.750820655,-1.972990922,0.027811863
1.247273013,2.704348654,0.002377798,-0.672742168,,1.556299961,1.46423132,-0.560758973,-1.532524052,0.007172392
1.249393054,2.621587822,0.003498966,-0.66854627,,1.557140902,2.84206129,-0.095985608,-0.158404648,-0.009447738
1.250088098,0.97079659,0.016892432,-0.363794856,,1.558114953,0.100675547,-1.204689927,-2.846955758,0.066519546
1.250088098,0.97079659,0.016892432,-0.363794856,,1.562928598,0.292231812,-1.100970469,-2.664784553,0.05989197
1.251513096,2.53882699,0.004687032,-0.663272221,,1.563752078,0.262804825,-1.116556814,-2.6927339,0.061058539
1.251513096,2.53882699,0.004687032,-0.663272221,,1.564297335,1.286079182,-0.632681251,-1.706495924,0.0153598
1.253014956,0.069936839,0.001895205,-0.030434802,,1.56525489,1.929208499,-0.387337438,-1.073510411,-0.01069002
1.253014956,0.069936839,0.001895205,-0.030434802,,1.565693912,2.745635652,-0.125976065,-0.255412967,-0.013605214
1.25439498,1.221472043,0.017836507,-0.436390413,,1.56764992,0.638143524,-0.924923375,-2.333692243,0.045526013
1.25439498,1.221472043,0.017836507,-0.436390413,,1.567692764,2.494667667,-0.202794397,-0.508067304,-0.018983882
1.255052733,2.453139059,0.005969734,-0.656666115,,1.568010339,2.861985077,-0.090374846,-0.138378283,-0.008499731
1.257156104,1.530418598,0.017081961,-0.513257696,,1.571334447,2.406509387,-0.230160904,-0.596659834,-0.019294915
1.257156104,1.530418598,0.017081961,-0.513257696,,1.571761999,2.891274046,-0.081516005,-0.108960512,-0.006935636
1.257928113,1.611267955,0.016570561,-0.531031239,,1.572346684,0.467528651,-1.009692082,-2.496942879,0.053187712
1.25859237,2.367451129,0.007281528,-0.648903708,,1.573140319,1.748344499,-0.451748523,-1.252402629,-0.004289998
1.25859237,2.367451129,0.007281528,-0.648903708,,1.581090933,2.986320202,-0.052419623,-0.013683962,-0.000971741
1.258700121,1.692117311,0.015940423,-0.547820846,,1.582046516,2.521283395,-0.194743592,-0.481236439,-0.018833372
1.258700121,1.692117311,0.015940423,-0.547820846,,1.582523883,2.716341818,-0.135472291,-0.284886728,-0.014728648
1.26009969,2.283195772,0.008564687,-0.640157593,,1.582891231,0.08580836,-1.212108092,-2.859382823,0.068335753
1.26160701,2.198940416,0.009829425,-0.630297787,,1.584236534,0.910005756,-0.795711146,-2.070800552,0.033577327
1.26160701,2.198940416,0.009829425,-0.630297787,,1.587717356,1.274077494,-0.636588113,-1.717198605,0.016489637
1.263174334,1.776015677,0.015219798,-0.564174183,,1.587757969,2.379388543,-0.238592896,-0.623774622,-0.019298471
1.264664176,2.112688562,0.01110059,-0.619045138,,1.588634262,1.386600192,-0.590379425,-1.607300572,0.011318057
1.267648546,1.859914043,0.014382659,-0.579454163,,1.589034708,2.157362373,-0.309534646,-0.845982433,-0.01656151
1.267648546,1.859914043,0.014382659,-0.579454163,,1.589802174,1.11304022,-0.704979366,-1.873801163,0.024129203
1.267684944,1.943175376,0.013393429,-0.593578496,,1.590220346,0.741736995,-0.873945736,-2.23278519,0.041667502
1.267721342,2.026436709,0.01231901,-0.60663408,,1.591505228,1.083864486,-0.717614481,-1.902041558,0.025563847
1.267721342,2.026436709,0.01231901,-0.60663408,,1.592180011,2.068623913,-0.338874592,-0.934396892,-0.014520176
1.272942604,0.694618443,0.014557585,-0.273348251,,1.59390765,1.51944827,-0.537408944,-1.477007768,0.005475473
1.272942604,0.694618443,0.014557585,-0.273348251,,1.594434322,1.354686229,-0.603066081,-1.638248718,0.012913635
1.276222498,0.559518442,0.012617564,-0.225276351,,1.59694596,1.16737389,-0.681212622,-1.820663387,0.021754416
1.276222498,0.559518442,0.012617564,-0.225276351,,1.599514666,2.57610115,-0.178287047,-0.426024681,-0.018227286
1.279717258,0.420600842,0.010162892,-0.173244938,,1.599720994,2.660409638,-0.152861306,-0.34117054,-0.016480152
1.279717258,0.420600842,0.010162892,-0.173244938,,1.600573027,0.362697232,-1.062461903,-2.59527122,0.058859917
1.279728085,0.824722923,0.016151525,-0.317209948,,1.602695078,2.184543319,-0.300401457,-0.818665027,-0.017068384
1.279728085,0.824722923,0.016151525,-0.317209948,,1.603167451,2.932705261,-0.070587987,-0.067388378,-0.004576207
1.281915226,0.281443659,0.007234538,-0.118518627,,1.604934453,1.030519683,-0.740469541,-1.95308953,0.028515564
1.281915226,0.281443659,0.007234538,-0.118518627,,1.605381923,0.190851735,-1.153673599,-2.758365901,0.065842951
1.285244817,1.037825151,0.01782866,-0.383920332,,1.608114334,0.924648387,-0.787897767,-2.055365961,0.033682108
1.287398258,1.163162878,0.018301009,-0.42013079,,1.609223301,2.324039758,-0.255784891,-0.679089468,-0.019013104
1.288638608,0.139873677,0.003822099,-0.060196147,,1.609246842,0.56734725,-0.957917423,-2.399138229,0.050395144
1.288638608,0.139873677,0.003822099,-0.060196147,,1.61005112,0.538130996,-0.972448687,-2.42707191,0.051736883
1.291255774,3,-0.000990843,-0.678574351,,1.610283534,2.039123427,-0.34830654,-0.963426489,-0.013645549
1.291965775,2.94589795,-0.00051506,-0.678465254,,1.61046803,2.986320202,-0.054495434,-0.013683872,-0.000989441
1.291965775,2.94589795,-0.00051506,-0.678465254,,1.613011252,1.411717604,-0.579150789,-1.58175313,0.010714802
1.293478261,0,0,0,,1.615034732,0.727026447,-0.87981013,-2.245499877,0.043290712
1.296033594,1.361621168,0.018402678,-0.472769736,,1.615679444,2.239823418,-0.28237228,-0.763282112,-0.017998378
1.296033594,1.361621168,0.018402678,-0.472769736,,1.616408415,1.699473624,-0.468045709,-1.299326558,-0.001764988
1.298212351,0.899289573,0.017113197,-0.341206158,,1.618995535,0.620966691,-0.931000566,-2.347134441,0.048362823
1.298212351,0.899289573,0.017113197,-0.341206158,,1.621011617,1.785790747,-0.436297551,-1.214101805,-0.005106144
1.300279114,2.852174327,0.000447664,-0.677145794,,1.621892864,0.843343011,-0.824646844,-2.133084871,0.038042768
1.304672674,1.275302753,0.018673015,-0.450509747,,1.622236461,1.340438906,-0.607589476,-1.650965016,0.0142401
1.304672674,1.275302753,0.018673015,-0.450509747,,1.622768152,0.483922416,-0.999187853,-2.478130734,0.054690448
1.306053236,1.42977603,0.018351939,-0.489468054,,1.623109264,0.809137029,-0.840554317,-2.165985312,0.039716799
1.308592454,2.758450704,0.001603844,-0.674456513,,1.623896218,0.014693905,-1.250633461,-2.923715153,0.07289193
1.309639604,0.7612005,0.015890029,-0.295948927,,1.624632566,1.608212707,-0.501920999,-1.388795584,0.002189343
1.309639604,0.7612005,0.015890029,-0.295948927,,1.624667334,0.377112042,-1.053952379,-2.579966118,0.059385984
1.312919498,0.626100498,0.014108637,-0.249140011,,1.627385966,1.669599147,-0.478697613,-1.328374599,-0.000361883
1.316072878,1.497930892,0.018198403,-0.505474974,,1.627914188,2.932705261,-0.072157719,-0.067387268,-0.004641578
1.316306825,0.489091698,0.011833934,-0.199108427,,1.629168431,2.861985077,-0.093590881,-0.138365207,-0.008784578
1.316905794,2.664727081,0.002918742,-0.670389061,,1.630158201,0.175984548,-1.160838798,-2.770772606,0.067679444
1.316905794,2.664727081,0.002918742,-0.670389061,,1.630359674,1.237801223,-0.649747173,-1.75058109,0.019315311
1.319025835,2.581966249,0.004175849,-0.665685543,,1.632820091,2.786874594,-0.116188422,-0.213866041,-0.012398686
1.319025835,2.581966249,0.004175849,-0.665685543,,1.633736643,0.068924498,-1.219817793,-2.871824566,0.071678682
1.319801585,0.350174098,0.009050895,-0.145782254,,1.635096204,2.449417363,-0.216975788,-0.553181559,-0.019524225
1.319801585,0.350174098,0.009050895,-0.145782254,,1.636520881,1.973948614,-0.36964103,-1.027603408,-0.011534053
1.320401536,1.104853713,0.018685465,-0.403379029,,1.636983918,1.813056028,-0.425889704,-1.186744829,-0.005933492
1.320401536,1.104853713,0.018685465,-0.403379029,,1.637188187,0.294182304,-1.096992441,-2.658082668,0.063422925
1.322565472,2.496278318,0.005541576,-0.659666625,,1.638165749,0.259249237,-1.115562409,-2.691216226,0.064877229
1.32426226,0.209810516,0.005767387,-0.089280479,,1.645373929,1.496512675,-0.544065987,-1.4975084,0.007548287
1.32426226,0.209810516,0.005767387,-0.089280479,,1.645723307,2.810526318,-0.109744399,-0.190073141,-0.011422722
1.32609252,1.566085754,0.017942927,-0.520786883,,1.646428088,0.96252655,-0.768879099,-2.016645333,0.033143326
1.32609252,1.566085754,0.017942927,-0.520786883,,1.647585932,1.398603602,-0.582813743,-1.593098152,0.012125986
1.32610511,2.410590388,0.006947393,-0.652488846,,1.648061367,1.876237373,-0.403089672,-1.124043842,-0.008123447
1.326864529,1.64693511,0.017340103,-0.538120797,,1.650238437,0.860725423,-0.815221123,-2.11468352,0.038222862
1.326864529,1.64693511,0.017340103,-0.538120797,,1.651011081,1.359238868,-0.59856832,-1.631348095,0.014065444
1.329101913,0.069936839,0.002033245,-0.030395937,,1.652135686,2.481013157,-0.207482555,-0.521365774,-0.019478792
1.329644747,2.324902458,0.008369135,-0.644153679,,1.652566667,0.791673992,-0.847349462,-2.181059065,0.041642963
1.329644747,2.324902458,0.008369135,-0.644153679,,1.652799117,2.752099593,-0.127269975,-0.248826757,-0.013912986
1.331152067,2.240647101,0.009745298,-0.634846151,,1.653915169,2.861985077,-0.094914377,-0.138357664,-0.008895662
1.331152067,2.240647101,0.009745298,-0.634846151,,1.654592729,2.41722194,-0.226763809,-0.585340198,-0.019590894
1.331338741,1.730833476,0.016637187,-0.555041029,,1.655156408,2.561937909,-0.183353998,-0.440071345,-0.018749215
1.33336907,0.966318135,0.018176161,-0.361998418,,1.6554233,2.670993368,-0.151182197,-0.330412381,-0.016550509
1.334209233,2.154395248,0.011134058,-0.624154708,,1.655627739,0.689680215,-0.895844168,-2.278919314,0.046634396
1.335812954,1.814731842,0.015804254,-0.570892361,,1.659135522,2.114165032,-0.32210722,-0.887927048,-0.015334752
1.337266399,2.068143395,0.01247297,-0.612302104,,1.66321615,0.414023231,-1.033169082,-2.542200358,0.059595279
1.337675952,1.216993587,0.019216454,-0.434694329,,1.663601604,2.336289409,-0.251492858,-0.666307076,-0.019174007
1.340287167,1.898630208,0.014850471,-0.585668187,,1.665790778,0.311294268,-1.086746792,-2.639844305,0.064122376
1.340287167,1.898630208,0.014850471,-0.585668187,,1.666018678,2.988476385,-0.057869191,-0.011526295,-0.000862971
1.340323564,1.981891541,0.013743355,-0.599294011,,1.667109058,1.275982824,-0.632020602,-1.711667056,0.018478042
1.340323564,1.981891541,0.013743355,-0.599294011,,1.667577913,0.241600252,-1.123853816,-2.705924496,0.067069498
1.346336604,0.827782557,0.017169351,-0.317903023,,1.667740362,2.945946338,-0.070774183,-0.054113227,-0.003868302
1.346336604,0.827782557,0.017169351,-0.317903023,,1.670277747,0.138637818,-1.179818657,-2.803293759,0.071199839
1.346336604,0.827782557,0.017169351,-0.317903023,,1.671952811,2.227353148,-0.285408069,-0.775007527,-0.017697381
1.346336604,0.827782557,0.017169351,-0.317903023,,1.674499016,1.485465677,-0.54705577,-1.507108832,0.008701659
1.346336604,0.827782557,0.017169351,-0.317903023,,1.674773443,1.16924168,-0.676654047,-1.814958431,0.023910374
1.346336604,0.827782557,0.017169351,-0.317903023,,1.675100404,2.810526318,-0.111104314,-0.190058583,-0.011577297
1.349616498,0.692682555,0.015560808,-0.272363792,,1.675351883,2.146431801,-0.311220201,-0.855551636,-0.016022016
1.352896392,0.557582553,0.013477623,-0.224303163,,1.680143019,0.843677232,-0.821673627,-2.129314933,0.040144477
1.352896392,0.557582553,0.013477623,-0.224303163,,1.680626394,2.079144712,-0.33304233,-0.922321943,-0.01428437
1.353285216,3,-0.001340859,-0.678039853,,1.681254849,0.808831783,-0.837894176,-2.162789369,0.041890798
1.353285216,3,-0.001340859,-0.678039853,,1.682761937,1.032387473,-0.735850272,-1.947060212,0.030922615
1.353285216,3,-0.001340859,-0.678039853,,1.683619379,2.559860953,-0.184346154,-0.44204149,-0.018908824
1.353285216,3,-0.001340859,-0.678039853,,1.683886271,2.668916412,-0.152550581,-0.332440308,-0.016769267
1.354950368,1.329133462,0.019453886,-0.464169476,,1.685117492,1.611332032,-0.498095153,-1.383517289,0.003205444
1.354950368,1.329133462,0.019453886,-0.464169476,,1.68592436,2.478547582,-0.208369556,-0.523637801,-0.019601065
1.354950368,1.329133462,0.019453886,-0.464169476,,1.686587791,2.749634018,-0.12926356,-0.25126808,-0.014198982
1.354950368,1.329133462,0.019453886,-0.464169476,,1.687506036,0.926553717,-0.783169151,-2.048991834,0.036328343
1.354950368,1.329133462,0.019453886,-0.464169476,,1.687841175,2.891274046,-0.088204191,-0.108942704,-0.00738034
1.356391152,0.418664954,0.010843798,-0.172290207,,1.688882023,2.418426326,-0.226337327,-0.583868214,-0.01966068
1.359885912,0.279747354,0.007717831,-0.117683851,,1.690474266,1.11545626,-0.699043197,-1.86624276,0.027050522
1.359885912,0.279747354,0.007717831,-0.117683851,,1.691348279,1.291819573,-0.624274169,-1.695068842,0.01837606
1.359885912,0.279747354,0.007717831,-0.117683851,,1.692177321,1.086280527,-0.711661693,-1.894393427,0.028554558
1.359885912,0.279747354,0.007717831,-0.117683851,,1.692486288,2.337303962,-0.250912061,-0.664993791,-0.019179303
1.359885912,0.279747354,0.007717831,-0.117683851,,1.694000111,0.726324737,-0.87638084,-2.241288724,0.046403842
1.359885912,0.279747354,0.007717831,-0.117683851,,1.694754299,1.985087659,-0.363994094,-1.015232125,-0.011334874
1.361598555,2.906276377,-0.000415893,-0.67752483,,1.69522764,0.293704671,-1.094841713,-2.654475138,0.06632011
1.361598555,2.906276377,-0.000415893,-0.67752483,,1.696037214,0.258943723,-1.113377478,-2.687422584,0.067813155
1.364725564,0.139873677,0.004093409,-0.060117457,,1.696405096,0.620278806,-0.927720949,-2.342832226,0.051603504
1.36497001,1.397288324,0.019445737,-0.481180743,,1.697969465,2.799312166,-0.115399389,-0.201314698,-0.012208324
1.36497001,1.397288324,0.019445737,-0.481180743,,1.698772922,1.732596033,-0.45247923,-1.264044563,-0.001779152
1.368525789,1.033346696,0.019161433,-0.382126172,,1.700177713,0.483234532,-0.996054084,-2.473624873,0.05818351
1.369565217,0,0,0,,1.700837495,2.228367701,-0.28456659,-0.773583907,-0.017618768
1.369911895,2.812552754,0.000733538,-0.675641603,,1.703174172,2.448156174,-0.21744076,-0.553981973,-0.019708891
1.369911895,2.812552754,0.000733538,-0.675641603,,1.703632713,0.376410332,-1.05090898,-2.575218821,0.06315951
1.37067923,1.158684422,0.019681751,-0.41838452,,1.704478964,2.773194867,-0.123186278,-0.227563411,-0.013367406
1.374989652,1.465443186,0.019328604,-0.497502829,,1.708438715,0.175984548,-1.157836793,-2.765138025,0.071815462
1.374989652,1.465443186,0.019328604,-0.497502829,,1.70937834,0.566457451,-0.953741931,-2.393465297,0.054713299
1.378225235,2.718829131,0.002069906,-0.672380233,,1.709641177,2.147636187,-0.310020228,-0.853753496,-0.015849986
1.378225235,2.718829131,0.002069906,-0.672380233,,1.70968225,1.858695354,-0.406960311,-1.139626808,-0.006662349
1.381493323,0.894811118,0.018365778,-0.339356459,,1.710182618,0.537241197,-0.968312783,-2.421342424,0.056124805
1.381493323,0.894811118,0.018365778,-0.339356459,,1.710474832,0.068924498,-1.217142136,-2.866155249,0.075974288
1.385009294,1.533598048,0.019103154,-0.513132098,,1.711804482,1.697131746,-0.464913711,-1.298395376,-3.22955E-05
1.385009294,1.533598048,0.019103154,-0.513132098,,1.712524468,2.861985077,-0.098101284,-0.138341151,-0.009147553
1.386313497,0.759264612,0.016963838,-0.294943284,,1.712697117,0.912192627,-0.788469434,-2.061299703,0.037945909
1.386313497,0.759264612,0.016963838,-0.294943284,,1.71424258,1.600285033,-0.500967296,-1.393184284,0.00430814
1.386538575,2.625105508,0.003555561,-0.667734034,,1.717733799,1.764962918,-0.439956422,-1.231592938,-0.002795394
1.386538575,2.625105508,0.003555561,-0.667734034,,1.71794358,2.082556764,-0.330886269,-0.918176327,-0.014081319
1.386538575,2.625105508,0.003555561,-0.667734034,,1.718166519,0.74077815,-0.868289008,-2.225826952,0.046661056
1.386538575,2.625105508,0.003555561,-0.667734034,,1.723159276,0.014693905,-1.247377222,-2.916282203,0.078613185
1.386538575,2.625105508,0.003555561,-0.667734034,,1.724559547,1.187299079,-0.666479605,-1.794756691,0.024531668
1.386538575,2.625105508,0.003555561,-0.667734034,,1.725194911,2.945946338,-0.074691421,-0.05411119,-0.003986694
1.387953646,1.270824297,0.020079656,-0.448798462,,1.726189625,1.98796191,-0.361989044,-1.011612259,-0.011079551
1.387953646,1.270824297,0.020079656,-0.448798462,,1.72638245,1.39971989,-0.578599472,-1.588369899,0.014063031
1.389593391,0.62416461,0.01505287,-0.248145575,,1.728429796,0.361593172,-1.057557298,-2.587519982,0.065016188
1.390078212,2.539417577,0.005004066,-0.662304835,,1.729267734,1.366559746,-0.591823298,-1.620491025,0.015761807
1.390078212,2.539417577,0.005004066,-0.662304835,,1.730524293,1.467630266,-0.55141887,-1.522022345,0.010889098
1.392980718,0.48715581,0.012615244,-0.198132061,,1.730742002,2.118781469,-0.318772871,-0.881994781,-0.014965164
1.393617849,2.453729647,0.006505037,-0.655714068,,1.731788954,2.852538477,-0.101848535,-0.147820769,-0.009741765
1.393617849,2.453729647,0.006505037,-0.655714068,,1.732412317,0.190594375,-1.148886275,-2.74949395,0.072511138
1.395028936,1.601752909,0.01877053,-0.528064936,,1.733025526,2.566358802,-0.18310016,-0.435295984,-0.019013891
1.395028936,1.601752909,0.01877053,-0.528064936,,1.733231855,2.65066729,-0.159031117,-0.350654577,-0.017473565
1.395028936,1.601752909,0.01877053,-0.528064936,,1.734504916,1.016920833,-0.7401282,-1.958945224,0.033452246
1.395028936,1.601752909,0.01877053,-0.528064936,,1.740337791,2.988476385,-0.063481662,-0.011526507,-0.000899437
1.395028936,1.601752909,0.01877053,-0.528064936,,1.741117576,1.861569604,-0.404744047,-1.135831763,-0.006292555
1.395028936,1.601752909,0.01877053,-0.528064936,,1.744058254,1.312086442,-0.613314749,-1.672660069,0.018874893
1.396475478,0.34823821,0.009634379,-0.144831453,,1.744712285,2.328798707,-0.252940648,-0.672885649,-0.019002526
1.396475478,0.34823821,0.009634379,-0.144831453,,1.746379162,1.684017744,-0.468232559,-1.309936831,0.001228716
1.397157486,2.368041717,0.008032036,-0.647963014,,1.746746797,0.636552015,-0.917303948,-2.323788251,0.052954078
1.397157486,2.368041717,0.008032036,-0.647963014,,1.748262425,2.509154545,-0.199715104,-0.492561295,-0.019593387
1.399503149,1.685651275,0.018096448,-0.545546823,,1.748739792,2.704212968,-0.14434213,-0.296826038,-0.016082017
1.399503149,1.685651275,0.018096448,-0.545546823,,1.748798769,1.203135828,-0.658536556,-1.778049209,0.024491926
1.400349216,0.209810516,0.006166686,-0.089160743,,1.751168428,2.244582367,-0.278576944,-0.756676019,-0.017689257
1.400349216,0.209810516,0.006166686,-0.089160743,,1.751443561,0.465937142,-1.00249409,-2.486451962,0.061342903
1.400697124,2.282353786,0.009560107,-0.639054334,,1.755050985,1.768374969,-0.437165197,-1.226926614,-0.002257756
1.400697124,2.282353786,0.009560107,-0.639054334,,1.755223311,0.84078358,-0.819282979,-2.1272801,0.043130296
1.400697124,2.282353786,0.009560107,-0.639054334,,1.756159897,0.811430402,-0.832957719,-2.155425182,0.044647995
1.400697124,2.282353786,0.009560107,-0.639054334,,1.756436565,2.385313253,-0.235915001,-0.616356418,-0.019510844
1.400697124,2.282353786,0.009560107,-0.639054334,,1.759695998,1.002559743,-0.745251108,-1.971228607,0.035069566
1.400697124,2.282353786,0.009560107,-0.639054334,,1.760434802,0.08580836,-1.205807214,-2.846312032,0.078182887
1.403682508,1.100375257,0.020060457,-0.401585074,,1.760842601,2.932705261,-0.080921017,-0.067378957,-0.004972137
1.403682508,1.100375257,0.020060457,-0.401585074,,1.761249209,1.556394703,-0.515500816,-1.434045495,0.007421832
1.403754289,2.196101933,0.011071323,-0.628926011,,1.762793356,2.48355337,-0.207167437,-0.518094168,-0.019725684
1.403754289,2.196101933,0.011071323,-0.628926011,,1.763810994,2.724060202,-0.139283291,-0.276855982,-0.015506575
1.403977362,1.769549641,0.017278566,-0.561964648,,1.764591544,0.895163188,-0.793655017,-2.074356181,0.040729876
1.403977362,1.769549641,0.017278566,-0.561964648,,1.76504498,1.1199918,-0.693318915,-1.857531581,0.029250029
1.405188869,0.069936839,0.002174807,-0.030353608,,1.766414456,2.806819536,-0.116416852,-0.19371845,-0.012191008
1.406811455,2.10985008,0.012536291,-0.617633684,,1.767066693,1.085356998,-0.708284647,-1.890866812,0.031091346
1.406811455,2.10985008,0.012536291,-0.617633684,,1.768476014,2.410357141,-0.228454532,-0.591222151,-0.019642517
1.408451574,1.853448007,0.016325608,-0.577311552,,1.768984772,0.757476642,-0.857803036,-2.206337566,0.047878285
1.408451574,1.853448007,0.016325608,-0.577311552,,1.769475465,0.290583913,-1.09330336,-2.651871475,0.070212346
1.409868621,2.023598227,0.013934641,-0.605183136,,1.770157435,0.261301916,-1.108968693,-2.679589955,0.071528373
1.409868621,2.023598227,0.013934641,-0.605183136,,1.770913205,0.651005429,-0.90904221,-2.30822787,0.053276728
1.412729551,3,-0.001716681,-0.677473338,,1.771373675,2.190468028,-0.294983247,-0.810087557,-0.016423821
1.412925787,1.937346373,0.015247666,-0.591580825,,1.77189794,2.784818793,-0.122756644,-0.215811294,-0.013204262
1.412925787,1.937346373,0.015247666,-0.591580825,,1.776240643,0.451119983,-1.008919318,-2.498715211,0.063204013
1.412925787,1.937346373,0.015247666,-0.591580825,,1.777874414,1.703022854,-0.459850506,-1.290075703,0.001049561
1.412925787,1.937346373,0.015247666,-0.591580825,,1.778204828,2.846963012,-0.105897934,-0.153398213,-0.010231085
1.412925787,1.937346373,0.015247666,-0.591580825,,1.779531479,0.344520589,-1.064232716,-2.599879224,0.068306004
1.412925787,1.937346373,0.015247666,-0.591580825,,1.780107086,2.923258661,-0.084866538,-0.076846308,-0.005655475
1.416650042,0.961839679,0.019486638,-0.360147587,,1.781746015,1.740721168,-0.445976367,-1.253024656,-0.000535881
1.416650042,0.961839679,0.019486638,-0.360147587,,1.78273039,0.207167932,-1.137751744,-2.729868925,0.074515876
1.420956925,1.212515132,0.020629395,-0.432930795,,1.783682627,0.568519944,-0.949138461,-2.386160161,0.057898171
1.420956925,1.212515132,0.020629395,-0.432930795,,1.783974126,1.987430822,-0.360193998,-1.010586998,-0.010309242
1.421083798,1.340653955,0.020555844,-0.46664379,,1.784408404,0.100418188,-1.196687514,-2.8305918,0.078979234
1.421083798,1.340653955,0.020555844,-0.46664379,,1.784637394,0.53383704,-0.966469152,-2.419204026,0.059631934
1.422634825,0.827395004,0.018319348,-0.317382883,,1.788472023,1.243526899,-0.639510283,-1.736643098,0.023694537
1.422634825,0.827395004,0.018319348,-0.317382883,,1.78914863,2.166161333,-0.302172861,-0.833838829,-0.015684672
1.426290391,0.690746667,0.016583339,-0.271345967,,1.7938196,1.138791761,-0.683719834,-1.837595885,0.029257413
1.426290391,0.690746667,0.016583339,-0.271345967,,1.793857177,2.055908258,-0.337298232,-0.942770056,-0.012468663
1.429570285,0.555646665,0.014353335,-0.223303165,,1.795208013,2.986320202,-0.068370634,-0.01368312,-0.00109512
1.429570285,0.555646665,0.014353335,-0.223303165,,1.795514612,1.88971958,-0.392858082,-1.106387619,-0.006485953
1.43110344,1.408808816,0.020521593,-0.483521116,,1.796601269,2.600959926,-0.174251289,-0.400296342,-0.01868922
1.43265978,2.945791681,-0.001250931,-0.677201787,,1.79682806,0.017443281,-1.243186834,-2.907709747,0.082864577
1.43265978,2.945791681,-0.001250931,-0.677201787,,1.796971275,1.068308806,-0.714212552,-1.905426985,0.033012964
1.433065045,0.416729066,0.011535915,-0.171315601,,1.797468455,1.605087717,-0.495297393,-1.384893491,0.006009558
1.433065045,0.416729066,0.011535915,-0.171315601,,1.800925393,0.96502411,-0.759982022,-2.004683188,0.038508791
1.436580217,0.278932219,0.008222348,-0.117192698,,1.801185563,2.446271724,-0.217912093,-0.555036854,-0.019725646
1.436580217,0.278932219,0.008222348,-0.117192698,,1.803926133,2.743764436,-0.135283059,-0.256995692,-0.014983045
1.440812521,0.139873677,0.004371437,-0.060031691,,1.804638337,2.086423298,-0.327084411,-0.912363926,-0.013285834
1.440812521,0.139873677,0.004371437,-0.060031691,,1.809762129,0.688075233,-0.889061089,-2.269891923,0.05308417
1.44097312,2.852068057,-7.31E-05,-0.675915315,,1.812110408,1.472338325,-0.545587934,-1.513403856,0.012839805
1.441123082,1.476963678,0.020372317,-0.499709157,,1.812370809,0.585677734,-0.93917882,-2.367599319,0.058338996
1.445652174,0,0,0,,1.813858724,2.291645753,-0.263129812,-0.708892363,-0.018156952
1.44928646,2.758344434,0.001317891,-0.673248971,,1.814074256,0.516247444,-0.973907648,-2.433725804,0.061844127
1.451142724,1.54511854,0.020108785,-0.515204281,,1.815558563,2.901635303,-0.09312357,-0.098523224,-0.007162726
1.451142724,1.54511854,0.020108785,-0.515204281,,1.816493043,0.413731889,-1.026310886,-2.531169907,0.066910635
1.451806761,1.028868241,0.020522976,-0.380271946,,1.818077075,2.97510605,-0.073265879,-0.0249058,-0.001987835
1.451806761,1.028868241,0.020522976,-0.380271946,,1.820557561,1.82984086,-0.412611055,-1.164243977,-0.003570086
1.453960203,1.154205967,0.021094434,-0.416571314,,1.822927475,0.137454612,-1.174455737,-2.792449563,0.079655592
1.453960203,1.154205967,0.021094434,-0.416571314,,1.823999488,1.621097279,-0.488030718,-1.368052402,0.005916641
1.454087076,1.28234479,0.021212655,-0.451356407,,1.824873847,1.121610901,-0.689525504,-1.852194944,0.031227664
1.457395222,2.5810278,0.004378336,-0.66447739,,1.825287361,0.034786751,-1.232204576,-2.888979196,0.083906871
1.457395222,2.5810278,0.004378336,-0.66447739,,1.825644369,1.316794502,-0.607249936,-1.663517996,0.021119715
1.457599799,2.664620811,0.002880837,-0.669195211,,1.826003809,1.085762748,-0.705055919,-1.886690025,0.033141663
1.457599799,2.664620811,0.002880837,-0.669195211,,1.830499479,2.553912097,-0.187706334,-0.447220078,-0.019338269
1.457791544,0.894423565,0.019571206,-0.338796823,,1.830709954,2.639915061,-0.164194709,-0.361102422,-0.0180448
1.460934859,2.49533987,0.005975873,-0.658455414,,1.831916439,1.4058099,-0.570910183,-1.5769063,0.01676232
1.462611719,0.758877059,0.018074017,-0.29442309,,1.832024644,1.207938513,-0.652230203,-1.768399471,0.026969301
1.464474496,2.40965194,0.007610339,-0.651270089,,1.834545164,2.130567291,-0.312139635,-0.868032903,-0.014228979
1.466267284,0.622228722,0.016014659,-0.247120005,,1.834801723,1.372649757,-0.584071138,-1.60888306,0.018541934
1.466267284,0.622228722,0.016014659,-0.247120005,,1.839286297,1.00241572,-0.741191425,-1.966054176,0.038001381
1.468014134,2.323964009,0.009254497,-0.642924075,,1.841200353,2.988785848,-0.071364585,-0.011216629,-0.000920445
1.468014134,2.323964009,0.009254497,-0.642924075,,1.842005057,0.56817519,-0.946420279,-2.381991894,0.060557735
1.469654611,0.485219921,0.013410055,-0.197131617,,1.842613713,0.895022002,-0.789689616,-2.069046821,0.043764328
1.469654611,0.485219921,0.013410055,-0.197131617,,1.842753737,0.533427803,-0.963817728,-2.415075184,0.062328849
1.472173887,3,-0.002133831,-0.676849193,,1.843044974,1.806545796,-0.419822491,-1.186172745,-0.002099195
1.473169784,0.347423075,0.010254756,-0.144303794,,1.84503041,2.528310921,-0.194883576,-0.47271186,-0.019530422
1.474415487,2.240462365,0.010864999,-0.633650697,,1.845781157,2.659762295,-0.159182846,-0.341154067,-0.017638774
1.474415487,2.240462365,0.010864999,-0.633650697,,1.845879475,2.337254837,-0.249124233,-0.663078442,-0.018654037
1.477043522,0.208995381,0.006555432,-0.088694251,,1.847006942,0.757335456,-0.853884896,-2.200762051,0.051119633
1.477472653,2.154210512,0.012465185,-0.622956376,,1.849501855,2.856817141,-0.107137912,-0.143469382,-0.009951014
1.480529819,2.067958659,0.014001803,-0.611100829,,1.850503504,0.650861406,-0.905107031,-2.302356966,0.056752225
1.481275826,0.069936839,0.002319926,-0.030307631,,1.852465377,2.251345874,-0.274494099,-0.74818846,-0.017079342
1.481275826,0.069936839,0.002319926,-0.030307631,,1.852837079,2.933310843,-0.087120826,-0.066763856,-0.0051334
1.481606895,1.633129685,0.01988235,-0.534030982,,1.854546257,0.017343471,-1.241063575,-2.9028223,0.086334439
1.481606895,1.633129685,0.01988235,-0.534030982,,1.854990748,0.450713069,-1.005339986,-2.492863654,0.066997762
1.483586985,1.981706805,0.015454425,-0.598090706,,1.856147234,0.840600953,-0.814172778,-2.12026708,0.04716085
1.483586985,1.981706805,0.015454425,-0.598090706,,1.856730008,0.344121692,-1.060861241,-2.594004043,0.072223824
1.486081108,1.717028051,0.019094458,-0.551099622,,1.85708382,0.811247774,-0.827860201,-2.148338304,0.048735872
1.486963481,1.095896802,0.0214661,-0.399725045,,1.857918924,2.362298725,-0.241685235,-0.638015881,-0.018905807
1.486963481,1.095896802,0.0214661,-0.399725045,,1.858184182,1.193465666,-0.656987655,-1.780680092,0.028631719
1.486963481,1.095896802,0.0214661,-0.399725045,,1.858639214,2.819566136,-0.117406604,-0.180838425,-0.01193952
1.486963481,1.095896802,0.0214661,-0.399725045,,1.859928919,0.206769035,-1.134611486,-2.723824326,0.078716737
1.486963481,1.095896802,0.0214661,-0.399725045,,1.861848942,1.956327214,-0.367702637,-1.038747267,-0.007877697
1.486963481,1.095896802,0.0214661,-0.399725045,,1.86315851,0.100011274,-1.19372172,-2.824288154,0.083513736
1.487090354,1.224035624,0.021789901,-0.435573415,,1.86325888,1.496358372,-0.533660016,-1.487326995,0.013120753
1.487217228,1.352174447,0.021673982,-0.469044422,,1.863742781,1.017118607,-0.733344379,-1.950176816,0.038155318
1.487217228,1.352174447,0.021673982,-0.469044422,,1.864122699,2.797565393,-0.123416044,-0.202906724,-0.012998683
1.490555321,1.800926417,0.018154219,-0.567103241,,1.864761306,2.480872849,-0.208064512,-0.519893406,-0.01962987
1.492104116,2.945791681,-0.001624443,-0.676573122,,1.867295548,2.694057072,-0.150630533,-0.306707121,-0.016800273
1.492948264,0.961452126,0.020740902,-0.359546034,,1.869176506,1.693776466,-0.459040587,-1.295104383,0.00363651
1.495029533,1.884824783,0.017071149,-0.582034837,,1.869333986,0.290067928,-1.089049779,-2.644184228,0.075418771
1.495029533,1.884824783,0.017071149,-0.582034837,,1.870015956,0.260785931,-1.104777801,-2.671855496,0.076813025
1.49723687,1.420329309,0.021611593,-0.485785362,,1.870240333,2.227039179,-0.281423428,-0.77188282,-0.016349932
1.498933047,0.827007451,0.019493889,-0.316819727,,1.870332002,2.409118771,-0.228158557,-0.591293411,-0.019306795
1.498933047,0.827007451,0.019493889,-0.316819727,,1.872315712,2.944834459,-0.085477789,-0.055215568,-0.004343133
1.502588612,0.690359114,0.017644549,-0.270830014,,1.872437873,1.725532847,-0.447368566,-1.264005678,0.00223696
1.506244178,0.553710777,0.015244626,-0.222274609,,1.875223161,2.753618565,-0.135318713,-0.24697275,-0.014859725
1.506244178,0.553710777,0.015244626,-0.222274609,,1.875466861,0.636117578,-0.911056344,-2.314444596,0.058623664
1.506244178,0.553710777,0.015244626,-0.222274609,,1.879149827,0.465185494,-0.996708813,-2.477077922,0.067456009
1.506244178,0.553710777,0.015244626,-0.222274609,,1.880108143,1.302712268,-0.61020012,-1.673780217,0.023643478
1.506244178,0.553710777,0.015244626,-0.222274609,,1.885697957,1.631490533,-0.481183926,-1.354898917,0.007065621
1.506244178,0.553710777,0.015244626,-0.222274609,,1.887805677,0.085317368,-1.200977176,-2.835927502,0.085568052
1.507256512,1.488484171,0.021428043,-0.50183694,,1.889789914,1.512367934,-0.526119288,-1.470311491,0.013112319
1.507256512,1.488484171,0.021428043,-0.50183694,,1.890346499,2.589804417,-0.178638005,-0.410944104,-0.018934113
1.50975935,0.41591393,0.012266106,-0.17074933,,1.89321134,0.911865977,-0.77929135,-2.049084773,0.044908465
1.512034345,2.891583361,-0.000999137,-0.675838489,,1.89385694,2.9905534,-0.075215711,-0.009448106,-0.000794566
1.512034345,2.891583361,-0.000999137,-0.675838489,,1.894590495,2.015674845,-0.346918499,-0.979410738,-0.00949928
1.513274523,0.278117084,0.008736464,-0.116687265,,1.896743704,2.875337259,-0.105064108,-0.124868672,-0.009020745
1.513274523,0.278117084,0.008736464,-0.116687265,,1.897235459,2.177630677,-0.295744734,-0.820045406,-0.014737037
1.517506827,0.139058542,0.004632801,-0.059595707,,1.898680742,0.7404515,-0.859247685,-2.212845715,0.054219834
1.520093633,1.165726459,0.022278702,-0.419299864,,1.900996007,1.780449747,-0.426443394,-1.209170182,0.000431922
1.520093633,1.165726459,0.022278702,-0.419299864,,1.901563267,1.118618388,-0.686764842,-1.849806581,0.034185144
1.520220506,1.293865282,0.022363567,-0.453839952,,1.902515127,1.088420549,-0.699844495,-1.878790176,0.035837804
1.520347684,2.797859738,0.000442945,-0.673770357,,1.905371655,2.046189885,-0.336671775,-0.949112361,-0.010405542
1.52173913,0,0,0,,1.906267682,1.288239421,-0.614782698,-1.686038643,0.02531155
1.52173913,0,0,0,,1.906362928,1.915999752,-0.379438309,-1.076615832,-0.005352518
1.52173913,0,0,0,,1.906926718,2.955688965,-0.085252606,-0.044342633,-0.00358591
1.528104983,1.028480688,0.021819374,-0.379625907,,1.907038422,0.360670274,-1.049701672,-2.57396611,0.074003716
1.528104983,1.028480688,0.021819374,-0.379625907,,1.907596311,2.559413008,-0.186891087,-0.441168086,-0.019222674
1.528251869,2.536950093,0.005328724,-0.660840025,,1.908237672,2.613365266,-0.172673588,-0.387285052,-0.018592553
1.528251869,2.536950093,0.005328724,-0.660840025,,1.909918817,1.413741948,-0.563731479,-1.564590214,0.018830715
1.528456447,2.620543104,0.003674166,-0.666132212,,1.911020944,0.189671476,-1.141698938,-2.735450952,0.082314212
1.528661024,2.704136115,0.002082117,-0.670311942,,1.911178206,1.175639316,-0.661753587,-1.794229284,0.031492057
1.528661024,2.704136115,0.002082117,-0.670311942,,1.911216238,2.298964314,-0.259203907,-0.699908124,-0.017452836
1.531618222,3,-0.002594105,-0.676162594,,1.91241998,2.099463683,-0.319511217,-0.896570007,-0.012111519
1.531791506,2.451262163,0.007073147,-0.654222907,,1.913343966,1.374377213,-0.57930067,-1.602415593,0.021007325
1.534089766,0.894036012,0.02080222,-0.338189113,,1.91556659,2.490411248,-0.205428922,-0.509865306,-0.019445728
1.535331144,2.365574232,0.008836987,-0.646441793,,1.915643082,1.033990735,-0.723081602,-1.930131145,0.039268407
1.535331144,2.365574232,0.008836987,-0.646441793,,1.916222338,2.886860875,-0.103334893,-0.113307445,-0.008367859
1.537720683,1.576495315,0.021306154,-0.521375336,,1.916692332,0.564905533,-0.944254274,-2.378926199,0.064193898
1.53890994,0.758489506,0.019207541,-0.293861775,,1.917323006,0.53563496,-0.958933609,-2.406755374,0.065730561
1.541732497,2.282072588,0.010569217,-0.637712265,,1.917667824,0.926568863,-0.771266574,-2.033076749,0.045121839
1.542565506,0.621841169,0.017017461,-0.246612914,,1.918511149,2.669814478,-0.158252754,-0.330787498,-0.017498925
1.542565506,0.621841169,0.017017461,-0.246612914,,1.922772446,2.397595281,-0.230904669,-0.602002736,-0.01885157
1.546348917,0.484404786,0.014243727,-0.196524363,,1.923644099,0.725707672,-0.86500109,-2.22487958,0.05609583
1.546348917,0.484404786,0.014243727,-0.196524363,,1.925508387,2.328694161,-0.250354521,-0.670218943,-0.017847608
1.548133851,2.198570944,0.012279012,-0.627885761,,1.926857399,0.618916563,-0.916864578,-2.32656113,0.061862035
1.548133851,2.198570944,0.012279012,-0.627885761,,1.927218707,2.83099724,-0.117934808,-0.169305098,-0.011567429
1.549864089,0.346607939,0.010887156,-0.143757577,,1.928341072,0.014609828,-1.239691092,-2.89862981,0.090953029
1.551191017,2.112319091,0.01396043,-0.61662735,,1.928765745,2.746858985,-0.139021581,-0.253624536,-0.015231184
1.551548451,2.945791681,-0.002037061,-0.675880944,,1.928850341,1.892704688,-0.386359173,-1.09846149,-0.003852861
1.553223784,1.235556117,0.022969952,-0.438141101,,1.929815696,0.481617493,-0.985737016,-2.457067957,0.069099014
1.553223784,1.235556117,0.022969952,-0.438141101,,1.931016355,0.843223263,-0.808980631,-2.111861162,0.050151788
1.553350658,1.36369494,0.022808025,-0.471366276,,1.931197501,0.375142699,-1.040891643,-2.558082142,0.074531197
1.553350658,1.36369494,0.022808025,-0.471366276,,1.932128185,0.808377814,-0.825239595,-2.145119891,0.052065907
1.553737827,0.208180245,0.006950938,-0.088216999,,1.932317063,2.270109596,-0.267181462,-0.727981326,-0.016599401
1.554248183,2.026067237,0.015559793,-0.604211477,,1.933728206,2.804879941,-0.124746106,-0.195476938,-0.01285844
1.554248183,2.026067237,0.015559793,-0.604211477,,1.935668111,0.174977571,-1.14868663,-2.747050358,0.084374144
1.557970131,0.069121703,0.002441747,-0.029908356,,1.936559156,1.547434156,-0.510286024,-1.433627269,0.012787311
1.557970131,0.069121703,0.002441747,-0.029908356,,1.937599526,2.607869418,-0.174529218,-0.392588113,-0.018636979
1.5633703,1.431849801,0.022715439,-0.487968137,,1.938383878,2.560395321,-0.186868142,-0.439935094,-0.019132352
1.5633703,1.431849801,0.022715439,-0.487968137,,1.9385396,0.068530115,-1.208339168,-2.847024533,0.089296508
1.564130488,1.097748741,0.022823285,-0.399670954,,1.94087001,2.910870803,-0.098949964,-0.089234366,-0.006866415
1.564130488,1.097748741,0.022823285,-0.399670954,,1.941414069,1.432747058,-0.554550029,-1.544225588,0.018895672
1.565690731,1.929185215,0.017339226,-0.588810057,,1.941501483,2.491238731,-0.205177944,-0.50875098,-0.019313679
1.568184855,1.66450646,0.020967002,-0.539731491,,1.943245046,2.665184875,-0.159997508,-0.335303646,-0.017604655
1.568184855,1.66450646,0.020967002,-0.539731491,,1.943452634,0.292422054,-1.084254803,-2.635348896,0.079239636
1.569246485,0.961064574,0.022021663,-0.358891039,,1.944262209,0.257661106,-1.102976433,-2.668158742,0.080962708
1.569246485,0.961064574,0.022021663,-0.358891039,,1.944398213,1.357196353,-0.584587152,-1.616949376,0.022994779
1.57147868,2.891583361,-0.0013582,-0.6751387,,1.948350552,1.248906919,-0.628856444,-1.72102352,0.028938241
1.572659067,1.748404826,0.020056186,-0.556383154,,1.948707338,2.398422764,-0.230382467,-0.600775329,-0.018636506
1.575231268,0.826619898,0.020692888,-0.316210177,,1.949680317,2.195310434,-0.288911537,-0.801267336,-0.014441255
1.575231268,0.826619898,0.020692888,-0.316210177,,1.950341985,2.844677038,-0.115774761,-0.155569457,-0.010902121
1.57713328,1.832303192,0.018984308,-0.571969011,,1.95049592,2.585290882,-0.180507427,-0.415019792,-0.01887732
1.57713328,1.832303192,0.018984308,-0.571969011,,1.953499642,2.742229382,-0.14104588,-0.258191692,-0.015428063
1.578886834,0.689971561,0.018727705,-0.270275209,,1.956295954,2.329676474,-0.249524615,-0.668650673,-0.017517646
1.578886834,0.689971561,0.018727705,-0.270275209,,1.957331402,0.963988627,-0.75214323,-1.994021166,0.04473861
1.582996809,0.55302873,0.016178734,-0.221671905,,1.96004889,0.860677204,-0.799297794,-2.092740002,0.050455089
1.582996809,0.55302873,0.016178734,-0.221671905,,1.961762433,0.790875269,-0.831902167,-2.159355463,0.054299054
1.586353936,1.305385774,0.023532053,-0.456244024,,1.961986821,2.955688965,-0.089486083,-0.044339892,-0.003655827
1.586353936,1.305385774,0.023532053,-0.456244024,,1.963090059,2.799384094,-0.127438222,-0.200936412,-0.01316788
1.586453656,0.415098795,0.013010475,-0.17015995,,1.964102211,0.688176786,-0.880977873,-2.257238822,0.059914216
1.586453656,0.415098795,0.013010475,-0.17015995,,1.965078769,2.9905534,-0.081222651,-0.0094481,-0.000817575
1.589968828,0.277301949,0.009260025,-0.116166754,,1.965096214,2.275688316,-0.264811857,-0.721732582,-0.016280467
1.589968828,0.277301949,0.009260025,-0.116166754,,1.967330337,1.84705738,-0.40022553,-1.141229288,-0.000859523
1.591062558,3,-0.003099261,-0.675408394,,1.968343116,1.982545882,-0.354852272,-1.009140968,-0.006654345
1.591062558,3,-0.003099261,-0.675408394,,1.969321933,2.094199176,-0.319218621,-0.899920231,-0.010858982
1.591408909,2.837375042,-0.000563343,-0.673932208,,1.970052661,0.412007296,-1.019633603,-2.519542969,0.074663159
1.591408909,2.837375042,-0.000563343,-0.673932208,,1.970350157,2.836368935,-0.118851291,-0.163873859,-0.011384698
1.593834471,1.519860946,0.022711602,-0.50821034,,1.972132116,0.309602413,-1.073630937,-2.616406129,0.079929427
1.594201132,0.138243407,0.004897763,-0.059152749,,1.972389068,2.886860875,-0.106842631,-0.113280217,-0.008492512
1.594201132,0.138243407,0.004897763,-0.059152749,,1.973521105,0.240217825,-1.111049077,-2.68188828,0.083408861
1.597260639,1.167578399,0.023659949,-0.419173332,,1.974415915,1.374550516,-0.575989491,-1.598154745,0.0231466
1.597826087,0,0,0,,1.974782956,2.305525347,-0.256029127,-0.69209791,-0.01680225
1.599108517,2.492872386,0.006412806,-0.656811688,,1.97485692,1.410736486,-0.561503143,-1.563245437,0.021230193
1.599108517,2.492872386,0.006412806,-0.656811688,,1.975541044,0.137844538,-1.167528089,-2.778260097,0.088378355
1.599313094,2.576465397,0.004603565,-0.662680414,,1.976588732,2.81719329,-0.123770981,-0.183076442,-0.01235962
1.599517671,2.660058408,0.002838911,-0.66743446,,1.977292884,2.200009848,-0.286713155,-0.795882422,-0.0141087
1.599722249,2.743651419,0.001150714,-0.671072392,,1.980846072,1.618681378,-0.481206684,-1.362040594,0.010582349
1.599722249,2.743651419,0.001150714,-0.671072392,,1.981141538,2.018770587,-0.342629098,-0.973261788,-0.007794499
1.602648154,2.407184455,0.008299975,-0.649597889,,1.983314493,2.672341057,-0.159100204,-0.327949814,-0.017407324
1.602648154,2.407184455,0.008299975,-0.649597889,,1.986413744,2.48475431,-0.206782198,-0.514633277,-0.018988455
1.60527199,1.030332627,0.023173348,-0.379580786,,1.986850365,1.499301333,-0.526152063,-1.477010164,0.016964914
1.609049508,2.323682811,0.010158192,-0.641413973,,1.987566222,1.288132316,-0.610465043,-1.680406942,0.028295236
1.610387988,0.893648459,0.022058641,-0.337529522,,1.989243591,2.879862279,-0.109553333,-0.120283392,-0.008957581
1.610387988,0.893648459,0.022058641,-0.337529522,,1.990117981,0.842935869,-0.805920015,-2.107125949,0.052726355
1.610992787,2.945791681,-0.002490225,-0.675119983,,1.990220301,2.632726688,-0.169018226,-0.367432307,-0.01814289
1.610992787,2.945791681,-0.002490225,-0.675119983,,1.990719695,0.807979383,-0.822266587,-2.140483825,0.05465522
1.615208162,0.758101953,0.020364179,-0.293256253,,1.990874959,1.175534322,-0.657484784,-1.788370612,0.034558496
1.615208162,0.758101953,0.020364179,-0.293256253,,1.991242106,2.73190255,-0.144823763,-0.26840248,-0.015788893
1.615450861,2.240181167,0.012000504,-0.632130034,,1.99198444,2.413000232,-0.22588375,-0.585621452,-0.018370571
1.619318137,0.621159122,0.018041053,-0.245962667,,1.992253333,1.677207455,-0.459099111,-1.30473362,0.007999237
1.619484088,1.375215432,0.02395757,-0.473603913,,1.995038146,1.954892081,-0.362795674,-1.034993032,-0.00484988
1.619484088,1.375215432,0.02395757,-0.473603913,,1.995339834,1.033885741,-0.718797786,-1.923896946,0.042501887
1.619484088,1.375215432,0.02395757,-0.473603913,,1.9955147,1.708963835,-0.447439629,-1.273801416,0.006523386
1.619484088,1.375215432,0.02395757,-0.473603913,,1.996144122,1.767640592,-0.426503298,-1.216906903,0.003681004
1.619484088,1.375215432,0.02395757,-0.473603913,,1.996483038,2.533143192,-0.194194269,-0.466479083,-0.018966763
1.619484088,1.375215432,0.02395757,-0.473603913,,1.9969345,2.098898589,-0.316782363,-0.894364425,-0.010438604
1.621852215,2.156679523,0.013802012,-0.621751879,,1.998966364,0.926461759,-0.766905484,-2.026464059,0.048546982
1.621852215,2.156679523,0.013802012,-0.621751879,,1.999704271,2.944834459,-0.094975067,-0.055203912,-0.004533791
1.623101548,0.483722739,0.015097319,-0.195938535,,2.001083991,2.613706936,-0.173892176,-0.386305244,-0.018375198
1.624298642,1.607872091,0.022481327,-0.527273716,,2.001514404,0.292097772,-1.0815631,-2.630145747,0.082384067
1.624909381,2.070427669,0.01555541,-0.609932407,,2.002093819,0.257474132,-1.100258236,-2.662819411,0.084140405
1.624909381,2.070427669,0.01555541,-0.609932407,,2.002862947,0.725147878,-0.861025458,-2.218482974,0.059700452
1.626558395,0.345792804,0.011531346,-0.143191723,,2.004515436,0.618367799,-0.913023453,-2.320121091,0.065535421
1.626558395,0.345792804,0.011531346,-0.143191723,,2.004653313,1.118482575,-0.681230702,-1.842021026,0.038240424
1.630390791,1.237408056,0.024367372,-0.437939333,,2.005605173,1.088284737,-0.694306115,-1.870900447,0.039939478
1.630432133,0.20736511,0.007353013,-0.087728455,,2.006686003,2.554114764,-0.188873676,-0.445532368,-0.018838127
1.630432133,0.20736511,0.007353013,-0.087728455,,2.007473732,0.481068729,-0.981994788,-2.450439794,0.072974507
1.630923016,2.891583361,-0.001753362,-0.674368782,,2.008561843,2.770529786,-0.136243427,-0.229721334,-0.014423585
1.630923016,2.891583361,-0.001753362,-0.674368782,,2.009371552,2.367130996,-0.238135052,-0.630597418,-0.017496828
1.634057088,0.069121703,0.002592278,-0.029855068,,2.010416349,0.374582906,-1.037179921,-2.551188252,0.078667828
1.636351929,1.973545647,0.017505851,-0.595186706,,2.012852593,1.302751151,-0.603075748,-1.664449068,0.028472883
1.641297495,1.09960068,0.024210222,-0.399547849,,2.013920689,2.024349308,-0.339551401,-0.966508374,-0.007219991
1.641297495,1.09960068,0.024210222,-0.399547849,,2.013948624,0.174977571,-1.144996841,-2.739494963,0.088845541
1.646413492,0.962916513,0.023364007,-0.358859115,,2.014648113,2.845991001,-0.11892932,-0.154185688,-0.010945509
1.647794478,1.876663624,0.019322613,-0.578998518,,2.015022021,1.480760024,-0.5318447,-1.492989145,0.018951862
1.648029522,3,-0.003627078,-0.674617117,,2.015277789,0.068530115,-1.204923138,-2.839501705,0.093938864
1.649948259,1.463226577,0.024085225,-0.49454173,,2.016558795,2.937835863,-0.097867325,-0.062208074,-0.005079825
1.649948259,1.463226577,0.024085225,-0.49454173,,2.017145239,0.564195691,-0.9393314,-2.370494267,0.06904376
1.650853245,2.837375042,-0.000895171,-0.673151085,,2.017775913,0.534925118,-0.954037259,-2.398271027,0.07063646
1.650853245,2.837375042,-0.000895171,-0.673151085,,2.01824121,2.988785848,-0.086217546,-0.011215685,-0.000986098
1.65152949,0.826232345,0.021915999,-0.31555072,,2.019903376,2.829837782,-0.122933971,-0.170350654,-0.011793307
1.65152949,0.826232345,0.021915999,-0.31555072,,2.019929289,2.878042585,-0.111846847,-0.122085459,-0.009118337
1.65152949,0.826232345,0.021915999,-0.31555072,,2.019932882,2.785531932,-0.133188754,-0.214685437,-0.013824795
1.65152949,0.826232345,0.021915999,-0.31555072,,2.024296026,0.911516778,-0.772345699,-2.038534146,0.050469382
1.65152949,0.826232345,0.021915999,-0.31555072,,2.024944669,2.346786522,-0.243447873,-0.650312389,-0.016903831
1.65152949,0.826232345,0.021915999,-0.31555072,,2.025910792,1.879638088,-0.386479281,-1.106714098,-0.000684762
1.654762814,1.695883235,0.022019302,-0.545150318,,2.026757342,2.199674153,-0.285338315,-0.794732453,-0.013154348
1.654762814,1.695883235,0.022019302,-0.545150318,,2.027256023,0.739556076,-0.85277881,-2.20248704,0.060039198
1.655639465,0.689289514,0.019833855,-0.269574303,,2.02760413,0.014609828,-1.235431307,-2.888819865,0.097144471
1.659237026,1.779781601,0.020976185,-0.561380851,,2.031010126,1.967401071,-0.357179421,-1.021213505,-0.004418758
1.659237026,1.779781601,0.020976185,-0.561380851,,2.031490117,2.254482461,-0.269261122,-0.740867169,-0.014642944
1.659749441,0.552346683,0.017130913,-0.22103586,,2.034272653,2.583125373,-0.181777705,-0.416426633,-0.018497697
1.659749441,0.552346683,0.017130913,-0.22103586,,2.03516746,0.359837311,-1.043688701,-2.562717761,0.080733699
1.663206287,0.414416748,0.013772854,-0.169596668,,2.037094247,2.000633593,-0.346189586,-0.988618186,-0.0056509
1.663520943,1.307237714,0.024937657,-0.455964119,,2.03729183,2.700083872,-0.15370608,-0.299979285,-0.016639986
1.663520943,1.307237714,0.024937657,-0.455964119,,2.038017765,0.189513973,-1.135758238,-2.723363017,0.089520287
1.666663134,0.276486813,0.009792753,-0.115630354,,2.038249382,2.980477745,-0.089840677,-0.019527077,-0.001706335
1.666663134,0.276486813,0.009792753,-0.115630354,,2.039650054,2.279616639,-0.261879534,-0.715975677,-0.015147747
1.666663134,0.276486813,0.009792753,-0.115630354,,2.0410461,2.922860747,-0.103057243,-0.077196412,-0.006198147
1.666663134,0.276486813,0.009792753,-0.115630354,,2.041941863,2.121507158,-0.308233915,-0.870636933,-0.010213915
1.666663134,0.276486813,0.009792753,-0.115630354,,2.042572767,1.193222749,-0.64712751,-1.767225757,0.035677163
1.666663134,0.276486813,0.009792753,-0.115630354,,2.044136767,1.591461668,-0.488090346,-1.384319364,0.014159896
1.667959751,2.945791681,-0.002963849,-0.674320995,,2.04458008,2.802272908,-0.130402037,-0.197885458,-0.013111555
1.669965164,2.448794678,0.007635302,-0.652381983,,2.04588272,2.454079069,-0.214406807,-0.544088862,-0.018180692
1.669965164,2.448794678,0.007635302,-0.652381983,,2.048131366,1.01687569,-0.723440863,-1.935641772,0.045682293
1.669965164,2.448794678,0.007635302,-0.652381983,,2.053933127,1.373609387,-0.572066206,-1.593212129,0.026214813
1.669965164,2.448794678,0.007635302,-0.652381983,,2.054304622,1.404091796,-0.559865039,-1.563900135,0.02456744
1.669965164,2.448794678,0.007635302,-0.652381983,,2.055138616,0.634847943,-0.902149667,-2.299591071,0.067067649
1.669965164,2.448794678,0.007635302,-0.652381983,,2.05621294,1.890175435,-0.381550214,-1.094940995,-0.00025208
1.670169741,2.532387689,0.005675918,-0.658828558,,2.056735791,2.991691897,-0.088920668,-0.008309126,-0.000741906
1.670169741,2.532387689,0.005675918,-0.658828558,,2.058821582,0.463915859,-0.988088509,-2.461682192,0.076482558
1.670288089,0.138243407,0.005192747,-0.059044371,,2.060041541,2.668612818,-0.161582808,-0.33120192,-0.017254741
1.670374319,2.6159807,0.003741043,-0.664159441,,2.063182252,1.776910184,-0.419984185,-1.20414873,0.005377798
1.670374319,2.6159807,0.003741043,-0.664159441,,2.063504544,2.949683526,-0.09876695,-0.050341918,-0.004228953
1.670578896,2.699573711,0.001863137,-0.668371625,,2.065033046,2.31757069,-0.250649297,-0.678045564,-0.01559813
1.670578896,2.699573711,0.001863137,-0.668371625,,2.065349249,0.085317368,-1.19298836,-2.818557459,0.096205731
1.670783474,2.783166722,7.71337E-05,-0.671463696,,2.065586071,0.839294289,-0.803472118,-2.103715556,0.056309591
1.670783474,2.783166722,7.71337E-05,-0.671463696,,2.065950089,2.889656819,-0.112091163,-0.110424884,-0.008452801
1.670783474,2.783166722,7.71337E-05,-0.671463696,,2.066092943,0.809847575,-0.81725187,-2.131763856,0.057963401
1.670783474,2.783166722,7.71337E-05,-0.671463696,,2.06662144,2.073633167,-0.321998348,-0.916311702,-0.00779405
1.670783474,2.783166722,7.71337E-05,-0.671463696,,2.066960983,1.317479282,-0.594080395,-1.646057451,0.029817724
1.670783474,2.783166722,7.71337E-05,-0.671463696,,2.067859139,1.207841583,-0.639546261,-1.751090794,0.0359187
1.670783474,2.783166722,7.71337E-05,-0.671463696,,2.068128487,2.729371409,-0.147782684,-0.270616977,-0.015759169
1.673913043,0,0,0,,2.068703549,1.460462695,-0.536866698,-1.508643647,0.022069407
1.674427646,1.169430338,0.025071029,-0.418971256,,2.070905231,2.649593066,-0.166218625,-0.350042224,-0.017526691
1.676366518,2.365293034,0.009623914,-0.644745558,,2.072308422,1.572920359,-0.493562594,-1.400240692,0.016175771
1.676366518,2.365293034,0.009623914,-0.644745558,,2.07340787,2.493463884,-0.204107961,-0.504728101,-0.018149291
1.68041243,1.551237721,0.023977831,-0.514303948,,2.073461028,1.001930708,-0.728700664,-1.947643479,0.047620723
1.68041243,1.551237721,0.023977831,-0.514303948,,2.074177343,2.861014347,-0.118836672,-0.139080017,-0.0101696
1.682438997,1.032184566,0.024556557,-0.379467709,,2.075737171,0.289032486,-1.079430187,-2.625550811,0.086600666
1.682767871,2.28179139,0.011603952,-0.636005885,,2.076144893,0.893886411,-0.777570967,-2.050604475,0.053758323
1.682767871,2.28179139,0.011603952,-0.636005885,,2.07622526,0.259866156,-1.095212138,-2.653046976,0.088135997
1.687554995,0.895500399,0.023380665,-0.337515417,,2.078522474,0.755761116,-0.842207244,-2.182130918,0.061534499
1.687554995,0.895500399,0.023380665,-0.337515417,,2.079077162,2.959130126,-0.097938928,-0.040885414,-0.003495441
1.68788998,2.891583361,-0.002166901,-0.673559801,,2.079090529,2.420267655,-0.222813063,-0.576790368,-0.017308673
1.689169225,2.198289746,0.01354844,-0.626169028,,2.079432606,2.844861129,-0.122635894,-0.15523067,-0.011051889
1.689169225,2.198289746,0.01354844,-0.626169028,,2.079499526,2.744373555,-0.144752978,-0.255604841,-0.015270128
1.691960793,0.757419906,0.021545822,-0.292501326,,2.079531692,0.64925614,-0.893727703,-2.283463471,0.067456278
1.691960793,0.757419906,0.021545822,-0.292501326,,2.081131657,1.121273303,-0.675787932,-1.832817482,0.041300502
1.695570579,2.114788101,0.015432445,-0.615241853,,2.08226162,1.08542515,-0.691307428,-1.86700892,0.043349637
1.695570579,2.114788101,0.015432445,-0.615241853,,2.083572693,0.449170264,-0.994376126,-2.473142911,0.078545482
1.695570579,2.114788101,0.015432445,-0.615241853,,2.083610836,2.514435457,-0.198815594,-0.483852369,-0.018132657
1.695570579,2.114788101,0.015432445,-0.615241853,,2.083814703,1.661836156,-0.460030253,-1.31384829,0.01193749
1.695570579,2.114788101,0.015432445,-0.615241853,,2.086142427,2.053655476,-0.327421815,-0.934883017,-0.00645796
1.695570579,2.114788101,0.015432445,-0.615241853,,2.086152353,0.342840339,-1.050041851,-2.57358882,0.084350483
1.696070768,0.620477075,0.019084092,-0.245273565,,2.087686305,1.69953447,-0.446184515,-1.277273877,0.010133278
1.699854179,0.483040692,0.015966905,-0.195322803,,2.08824999,2.610868187,-0.175516841,-0.388339458,-0.017876541
1.700377828,1.379883537,0.025421526,-0.473897019,,2.088441825,0.206030237,-1.12409495,-2.702540393,0.091588935
1.700377828,1.379883537,0.025421526,-0.473897019,,2.089418389,0.09985377,-1.183543689,-2.802340364,0.096965858
1.703311026,0.345110757,0.012191438,-0.142656929,,2.09060088,2.813887142,-0.129897075,-0.186173165,-0.012570056
1.703311026,0.345110757,0.012191438,-0.142656929,,2.090629804,2.770454229,-0.139357321,-0.229541971,-0.014352035
1.704996487,3,-0.004199222,-0.673753564,,2.091707556,0.566410688,-0.934186606,-2.361010474,0.072595863
1.70651909,0.20736511,0.007785915,-0.087562788,,2.092456236,0.531663301,-0.951663402,-2.393941374,0.074530994
1.70651909,0.20736511,0.007785915,-0.087562788,,2.0934844,1.787447532,-0.414812603,-1.192144399,0.005902047
1.707013127,2.017906079,0.01756239,-0.601153147,,2.093741628,2.552450132,-0.18948409,-0.446128546,-0.018086634
1.707013127,2.017906079,0.01756239,-0.601153147,,2.094663646,2.399923181,-0.227887251,-0.596452126,-0.016728396
1.707557798,1.239259995,0.025794586,-0.437655156,,2.095071274,2.174906523,-0.290400131,-0.816559752,-0.010772139
1.707557798,1.239259995,0.025794586,-0.437655156,,2.09571857,2.906733288,-0.110350869,-0.093317119,-0.00736429
1.707820209,2.837375042,-0.001243447,-0.67232977,,2.10129107,0.017343471,-1.230443963,-2.878424598,0.101691848
1.707820209,2.837375042,-0.001243447,-0.67232977,,2.105806536,1.954239896,-0.358175654,-1.030295442,-0.00159778
1.710144044,0.069121703,0.002746245,-0.029797571,,2.107498595,2.993001404,-0.093151462,-0.006998925,-0.000633397
1.710876602,1.639248866,0.023629005,-0.532882589,,2.1094682,1.89648477,-0.37696938,-1.085931933,0.001182551
1.710876602,1.639248866,0.023629005,-0.532882589,,2.109485391,1.244106685,-0.622012665,-1.712763525,0.035667943
1.718455676,1.921024056,0.019559843,-0.585619145,,2.11093169,1.982234374,-0.348922778,-1.002933686,-0.002679522
1.718455676,1.921024056,0.019559843,-0.585619145,,2.111149359,1.138627466,-0.666623632,-1.813503481,0.041639148
1.718464502,1.10145262,0.025626486,-0.39934988,,2.111158844,2.697073967,-0.156137565,-0.30253829,-0.016410366
1.718464502,1.10145262,0.025626486,-0.39934988,,2.111291189,2.916179888,-0.109433315,-0.083857846,-0.006729491
1.723580499,0.964768452,0.024734857,-0.358760755,,2.112330712,1.067683814,-0.69739432,-1.881193631,0.045668714
1.723580499,0.964768452,0.024734857,-0.358760755,,2.112990465,1.531709918,-0.506984148,-1.436854112,0.019966975
1.724926716,2.945791681,-0.003477168,-0.673448374,,2.114092364,2.967171782,-0.099091206,-0.032836825,-0.002860953
1.72888953,0.826092358,0.023183718,-0.314909746,,2.114153326,0.963783525,-0.743569448,-1.980234031,0.051579634
1.72888953,0.826092358,0.023183718,-0.314909746,,2.117257554,1.639825584,-0.466327005,-1.332698168,0.014357363
1.729898224,1.824142033,0.021393166,-0.568653341,,2.118325939,2.873713471,-0.118678829,-0.126328871,-0.009446523
1.729898224,1.824142033,0.021393166,-0.568653341,,2.118931325,2.358649527,-0.238303448,-0.636322997,-0.015458972
1.730842,1.467894682,0.025524974,-0.494702784,,2.118935698,0.685952129,-0.873612936,-2.244534196,0.067336257
1.732392096,0.688607467,0.020960623,-0.268828662,,2.119856155,2.222444819,-0.275806626,-0.769316612,-0.011718915
1.732392096,0.688607467,0.020960623,-0.268828662,,2.120664818,0.583514802,-0.924028552,-2.341749371,0.073099383
1.733001376,2.483102163,0.007005847,-0.654279167,,2.121838525,0.51415866,-0.958943004,-2.407480563,0.076978295
1.733001376,2.483102163,0.007005847,-0.654279167,,2.123573424,0.411901772,-1.011602095,-2.504240222,0.082651248
1.733205953,2.566695174,0.004921576,-0.660259283,,2.123658284,1.712043459,-0.439850714,-1.26281495,0.010831515
1.733410531,2.650288185,0.00287086,-0.665120052,,2.124055238,2.674495432,-0.161408969,-0.324874549,-0.016770272
1.733615108,2.733881196,0.000888881,-0.668858217,,2.124564514,2.854537826,-0.122991983,-0.145489125,-0.010523344
1.733615108,2.733881196,0.000888881,-0.668858217,,2.124657517,2.714883163,-0.152531978,-0.284740019,-0.015920856
1.736502072,0.551664636,0.018100563,-0.220364339,,2.126407861,2.812402942,-0.131823065,-0.18756738,-0.012587868
1.736502072,0.551664636,0.018100563,-0.220364339,,2.126445275,2.756221218,-0.143672311,-0.2435873,-0.014736746
1.738524796,2.41195702,0.008807517,-0.648227309,,2.128016092,2.247578996,-0.268430596,-0.744532587,-0.012303016
1.738524796,2.41195702,0.008807517,-0.648227309,,2.12817857,0.136715814,-1.160734338,-2.763468019,0.097459423
1.739958918,0.413734701,0.014548972,-0.169007243,,2.129601071,2.461761816,-0.211542707,-0.534917563,-0.017028485
1.739958918,0.413734701,0.014548972,-0.169007243,,2.129863785,0.034599778,-1.219035107,-2.859099721,0.102677146
1.741340773,1.727260011,0.023033638,-0.550269659,,2.131569444,2.618301298,-0.174160242,-0.380505085,-0.017414705
1.741340773,1.727260011,0.023033638,-0.550269659,,2.133346977,2.29280306,-0.255716465,-0.700249694,-0.013495852
1.741340773,1.727260011,0.023033638,-0.550269659,,2.133508688,2.027798079,-0.333515432,-0.957679497,-0.003934275
1.741340773,1.727260011,0.023033638,-0.550269659,,2.135345862,2.142706783,-0.298448655,-0.846234461,-0.008506855
1.741340773,1.727260011,0.023033638,-0.550269659,,2.136812348,2.884927624,-0.117492364,-0.11509787,-0.008771426
1.741340773,1.727260011,0.023033638,-0.550269659,,2.138281984,1.817067981,-0.40236666,-1.160776792,0.006052599
1.741340773,1.727260011,0.023033638,-0.550269659,,2.138673037,2.542735861,-0.19175271,-0.455048355,-0.017508914
1.741475444,2.792937225,-0.000491459,-0.670700983,,2.138996352,2.933967854,-0.10779013,-0.066051594,-0.005469496
1.741475444,2.792937225,-0.000491459,-0.670700983,,2.141695426,1.119699235,-0.67307518,-1.828726072,0.044062956
1.743206524,0.276091302,0.010346991,-0.115245379,,2.141713113,2.486657377,-0.205249891,-0.510197042,-0.01709639
1.743206524,0.276091302,0.010346991,-0.115245379,,2.141746816,1.084603737,-0.688330358,-1.862228768,0.046041148
1.744414684,1.311905819,0.026438108,-0.456274599,,2.145178649,2.81245644,-0.132637054,-0.187462641,-0.012544617
1.744856945,2.891583361,-0.00261541,-0.672675639,,2.145216063,2.756274716,-0.144262883,-0.2434459,-0.014654142
1.744856945,2.891583361,-0.00261541,-0.672675639,,2.146847502,2.854601334,-0.124175128,-0.145389868,-0.01049966
1.74492615,2.328455376,0.010922228,-0.640100676,,2.146940505,2.714946671,-0.153055127,-0.284532629,-0.015784696
1.746375045,0.138243407,0.005494137,-0.058927324,,2.148088073,2.437610689,-0.217336881,-0.558208097,-0.016352873
1.746375045,0.138243407,0.005494137,-0.058927324,,2.148648935,1.655488333,-0.458941073,-1.315363028,0.014772666
1.75,0,0,0,,2.149756534,1.313568834,-0.591080592,-1.642737132,0.033537755
1.751327504,2.244953732,0.013009528,-0.630873304,,2.150223632,0.565839611,-0.931245784,-2.355376451,0.075564796
1.751594653,1.171282277,0.026511434,-0.418687222,,2.150457947,2.676139829,-0.161495001,-0.323019413,-0.016534215
1.751594653,1.171282277,0.026511434,-0.418687222,,2.150648659,0.531230856,-0.948682845,-2.38817841,0.0775078
1.757728858,2.161452088,0.015042386,-0.620552362,,2.151178063,1.690007894,-0.446314504,-1.282044492,0.013054165
1.757728858,2.161452088,0.015042386,-0.620552362,,2.151499099,1.456552247,-0.533866876,-1.505799328,0.025669489
1.759606004,1.034036505,0.025968372,-0.379281135,,2.152318758,1.203852541,-0.636509959,-1.747348163,0.039805084
1.759606004,1.034036505,0.025968372,-0.379281135,,2.153523419,1.001010163,-0.724621337,-1.940830142,0.051293391
1.761306171,1.555905826,0.02537945,-0.514330239,,2.153810611,2.619686509,-0.174014778,-0.378873139,-0.01716317
1.761963452,3,-0.004817167,-0.672812209,,2.153811605,2.873776979,-0.120734899,-0.126222936,-0.00942547
1.764915035,0.895360411,0.024709453,-0.336806741,,2.154629852,0.892984002,-0.773589805,-2.043696532,0.057438137
1.769320833,0.757279919,0.022767991,-0.291872055,,2.15486685,2.122729092,-0.3036366,-0.864727368,-0.007150212
1.772784517,2.083948452,0.016964084,-0.609864064,,2.156768041,1.568931317,-0.490532396,-1.397740517,0.019746042
1.772784517,2.083948452,0.016964084,-0.609864064,,2.157007433,0.754858708,-0.838259858,-2.174974526,0.06532785
1.7728234,0.619795028,0.020145828,-0.244543087,,2.159007497,0.017256307,-1.227688196,-2.872028329,0.105396321
1.7728234,0.619795028,0.020145828,-0.244543087,,2.159594083,0.648335594,-0.889738095,-2.275997805,0.071431087
1.776606811,0.482358645,0.016851821,-0.194675363,,2.159844541,2.698781873,-0.156787578,-0.300487549,-0.016043701
1.776606811,0.482358645,0.016851821,-0.194675363,,2.160914204,2.544121071,-0.191351856,-0.45331265,-0.017181813
1.77851218,2.847145544,-0.001935591,-0.671402493,,2.161031556,1.36855111,-0.568181871,-1.589161415,0.03096321
1.779854416,0.344715246,0.012869997,-0.142212669,,2.161403051,1.399033519,-0.555981145,-1.559982075,0.029282051
1.781271569,1.384551642,0.026916081,-0.47407792,,2.162315583,0.448814906,-0.990268378,-2.465034238,0.082674432
1.781271569,1.384551642,0.026916081,-0.47407792,,2.163343809,0.342491982,-1.046084181,-2.565534875,0.088567244
1.781893681,2.945791681,-0.004031301,-0.672496449,,2.164350586,2.374657759,-0.233101204,-0.619377654,-0.014810449
1.781893681,2.945791681,-0.004031301,-0.672496449,,2.165117143,2.916179888,-0.113148321,-0.083830504,-0.006739807
1.783062479,0.206969598,0.008216054,-0.087221175,,2.165633281,0.20568188,-1.120264132,-2.694367242,0.096073351
1.784227065,1.987066429,0.019179823,-0.595308554,,2.166857811,2.967171782,-0.103461072,-0.032833322,-0.002878991
1.786231001,0.069121703,0.002903548,-0.029735668,,2.167108626,0.838126998,-0.79833842,-2.094644372,0.06112459
1.786231001,0.069121703,0.002903548,-0.029735668,,2.167615499,0.808680283,-0.812126946,-2.12262345,0.062810084
1.788451539,1.2439281,0.027323236,-0.437987328,,2.168115822,2.488301774,-0.204574544,-0.508033887,-0.016642303
1.791770342,1.643916971,0.024978339,-0.532771399,,2.168161279,0.099498412,-1.179778367,-2.793909261,0.101798887
1.791770342,1.643916971,0.024978339,-0.532771399,,2.172470896,1.770499043,-0.416720973,-1.203242196,0.009725607
1.795631509,1.103304559,0.027071326,-0.399070946,,2.175586542,0.288581877,-1.074368258,-2.615069829,0.092181506
1.795631509,1.103304559,0.027071326,-0.399070946,,2.175752221,2.993001404,-0.09930331,-0.006999061,-0.000641358
1.795631509,1.103304559,0.027071326,-0.399070946,,2.176074631,0.259415546,-1.090184016,-2.642532545,0.093790994
1.795631509,1.103304559,0.027071326,-0.399070946,,2.176186598,2.443036707,-0.215537406,-0.552203424,-0.015864924
1.795631509,1.103304559,0.027071326,-0.399070946,,2.178050215,1.187907741,-0.641806855,-1.76010584,0.041869741
1.795631509,1.103304559,0.027071326,-0.399070946,,2.178303016,1.015263201,-0.716859044,-1.92472516,0.051642239
1.795669613,1.890184406,0.021238627,-0.579315724,,2.178648752,2.814138084,-0.133745027,-0.185686183,-0.012371724
1.796037588,2.517409648,0.006263866,-0.655885927,,2.178677676,2.770705172,-0.142383917,-0.228925747,-0.014017969
1.796037588,2.517409648,0.006263866,-0.655885927,,2.179437011,2.906786787,-0.115912008,-0.09321101,-0.007366652
1.796242166,2.601002659,0.004049718,-0.661396907,,2.182997647,2.289483457,-0.255191542,-0.701743294,-0.012105503
1.796446743,2.68459567,0.001879001,-0.665784521,,2.183211574,1.582125334,-0.484154374,-1.382973147,0.020150463
1.796446743,2.68459567,0.001879001,-0.665784521,,2.184102305,2.468832232,-0.209093081,-0.526757937,-0.016085919
1.800940539,0.964628465,0.026116959,-0.357980303,,2.184493896,0.633446332,-0.895672803,-2.28741108,0.073509821
1.801561009,2.446264505,0.008176936,-0.65022111,,2.184753576,2.196050209,-0.281123242,-0.792339891,-0.00897114
1.804307079,2.743651699,0.00035714,-0.668073439,,2.186584721,0.463196217,-0.981483847,-2.448682002,0.0831543
1.80624957,0.825952371,0.024475055,-0.314209518,,2.186638099,2.081197443,-0.314822998,-0.90331937,-0.004421251
1.80624957,0.825952371,0.024475055,-0.314209518,,2.186898461,1.87987021,-0.378770892,-1.097204585,0.004801783
1.807084429,2.375119363,0.010096574,-0.643750307,,2.188020278,2.379228539,-0.23138879,-0.614203039,-0.014342466
1.807084429,2.375119363,0.010096574,-0.643750307,,2.189048836,2.845173542,-0.128202627,-0.154718199,-0.010906993
1.807112162,1.793302384,0.023109112,-0.561899974,,2.189115755,2.744685969,-0.147944674,-0.254723766,-0.014738675
1.807112162,1.793302384,0.023109112,-0.561899974,,2.19257632,2.617365776,-0.17476267,-0.380662852,-0.016682447
1.809752137,0.68846748,0.022127185,-0.268217073,,2.192711418,0.084888585,-1.186853659,-2.804762718,0.104077431
1.81173574,1.472562786,0.026993962,-0.494742047,,2.194440318,2.22588724,-0.272345371,-0.763006814,-0.009720954
1.812167415,2.802707728,-0.001136468,-0.669794375,,2.19491527,2.861326761,-0.12543553,-0.138592397,-0.010059244
1.812167415,2.802707728,-0.001136468,-0.669794375,,2.195653062,1.75193668,-0.422005215,-1.219370266,0.011629243
1.813254703,0.550982589,0.019086847,-0.219655166,,2.198067959,2.55894772,-0.187791075,-0.438074052,-0.016624094
1.813254703,0.550982589,0.019086847,-0.219655166,,2.199985883,2.731069033,-0.150971285,-0.268161864,-0.015004378
1.813254703,0.550982589,0.019086847,-0.219655166,,2.200787517,2.657682315,-0.166145786,-0.340777127,-0.016261447
1.813254703,0.550982589,0.019086847,-0.219655166,,2.201156743,2.959130126,-0.107767792,-0.040871538,-0.003539733
1.813254703,0.550982589,0.019086847,-0.219655166,,2.204410642,1.293703832,-0.596150652,-1.656611255,0.037113706
1.813254703,0.550982589,0.019086847,-0.219655166,,2.205880972,0.909428941,-0.763132993,-2.02261561,0.058951157
1.813485783,2.291617719,0.012330989,-0.635134506,,2.20596481,1.932748483,-0.360487107,-1.045150953,0.002984869
1.815548916,2.901353864,-0.003436508,-0.671577517,,2.206166355,2.889907762,-0.120756578,-0.110047383,-0.008407419
1.816502308,0.41333919,0.01534449,-0.168500294,,2.206580069,1.471712705,-0.524919223,-1.486519887,0.02724752
1.818930417,3,-0.005482335,-0.671787149,,2.206667338,2.294054237,-0.253248023,-0.696404992,-0.011561806
1.818930417,3,-0.005482335,-0.671787149,,2.207927133,2.172334494,-0.287059785,-0.81421728,-0.007343031
1.818930417,3,-0.005482335,-0.671787149,,2.208694614,2.676755565,-0.162241555,-0.321846827,-0.015932296
1.819749913,0.27569579,0.010910945,-0.11484231,,2.208840969,0.737468239,-0.843664314,-2.185853359,0.068848461
1.819749913,0.27569579,0.010910945,-0.11484231,,2.21093895,2.011183518,-0.335292374,-0.969430774,-0.000481776
1.819887137,2.208116074,0.014517844,-0.625421693,,2.211089964,1.960742961,-0.351230091,-1.017924618,0.001855545
1.819887137,2.208116074,0.014517844,-0.625421693,,2.213493122,2.522524705,-0.196033486,-0.473499601,-0.01609755
1.822918435,0.137847895,0.005787861,-0.058635638,,2.213759722,0.359031343,-1.034504187,-2.544110546,0.090419435
1.825308424,1.316573923,0.027969381,-0.456472433,,2.21547661,2.949737024,-0.110588328,-0.050261563,-0.00427963
1.826086957,0,0,0,,2.216610026,0.188708006,-1.126941599,-2.704411253,0.099977564
1.826086957,0,0,0,,2.218123758,1.11472834,-0.670905806,-1.825825939,0.047882006
1.826086957,0,0,0,,2.218167048,1.085164524,-0.683763384,-1.85398035,0.049561894
1.832488394,1.175950382,0.028059619,-0.419046016,,2.221683509,2.802777664,-0.137672987,-0.196837819,-0.012634569
1.832488394,1.175950382,0.028059619,-0.419046016,,2.222538842,2.231313259,-0.269856293,-0.75651792,-0.00901229
1.834942795,2.130612438,0.01658077,-0.615280114,,2.22493974,0.56230695,-0.928829275,-2.350323814,0.079582938
1.835681421,1.714559559,0.02479968,-0.546412881,,2.225297774,0.533153158,-0.943527734,-2.3779255,0.081250678
1.835681421,1.714559559,0.02479968,-0.546412881,,2.226398387,2.991691897,-0.10412505,-0.008307757,-0.000761876
1.836966044,1.033896518,0.027395957,-0.378424618,,2.226731373,1.649969787,-0.456774312,-1.314500951,0.018377252
1.836966044,1.033896518,0.027395957,-0.378424618,,2.226959847,2.506123913,-0.19968963,-0.48924383,-0.015640242
1.842199911,1.560573931,0.026808701,-0.514224805,,2.228861865,1.679048444,-0.446133887,-1.286535072,0.016907751
1.842199911,1.560573931,0.026808701,-0.514224805,,2.229666033,2.706832403,-0.156449341,-0.291910844,-0.015216728
1.842275075,0.895220424,0.026062402,-0.336031539,,2.229958416,2.380089621,-0.230180442,-0.612002629,-0.013250269
1.846680873,0.757139932,0.024012008,-0.291186803,,2.230142098,1.277759031,-0.60126501,-1.669277518,0.039213799
1.849204151,2.856916047,-0.002713127,-0.670323896,,2.230183576,1.169314631,-0.646762644,-1.772578282,0.045357915
1.849998454,2.053108802,0.018587263,-0.604205658,,2.230386636,1.030640052,-0.707069382,-1.904588637,0.053245304
1.849998454,2.053108802,0.018587263,-0.604205658,,2.230660569,0.923681979,-0.755202311,-2.006336636,0.05934187
1.85018344,0.619655041,0.02124649,-0.243955443,,2.232784436,0.014536402,-1.225507484,-2.865841112,0.110315966
1.85018344,0.619655041,0.02124649,-0.243955443,,2.232888122,2.426615277,-0.218544723,-0.566653085,-0.014212974
1.852585652,2.955562183,-0.00498665,-0.671220691,,2.233023602,1.484906723,-0.518343498,-1.471524046,0.027720411
1.852585652,2.955562183,-0.00498665,-0.671220691,,2.233740782,0.722578976,-0.849413893,-2.197170822,0.070933617
1.8531502,0.481963134,0.017756731,-0.194101952,,2.233853346,2.105780603,-0.305472023,-0.877067553,-0.003758024
1.8531502,0.481963134,0.017756731,-0.194101952,,2.234027814,2.92311169,-0.116628693,-0.076861131,-0.006219956
1.856397806,0.344319734,0.013560079,-0.141744849,,2.235357709,1.851735534,-0.385750203,-1.120840442,0.008174441
1.8590738,2.551717133,0.005401863,-0.657192086,,2.235732903,0.616111274,-0.901350413,-2.29802336,0.077085893
1.8590738,2.551717133,0.005401863,-0.657192086,,2.237028778,1.593598912,-0.476945019,-1.367455266,0.021905417
1.859278378,2.635310144,0.003052472,-0.662231058,,2.237412332,0.479359987,-0.970301654,-2.427468758,0.084929704
1.859278378,2.635310144,0.003052472,-0.662231058,,2.23802886,0.373412654,-1.025523466,-2.527640721,0.090944762
1.859605869,0.206574087,0.008653253,-0.086865952,,2.238134049,2.182280225,-0.283061604,-0.803127314,-0.006678866
1.861441002,1.956226779,0.020879399,-0.58918886,,2.239556171,2.448344962,-0.213143259,-0.545290999,-0.014459336
1.862165309,1.389219747,0.028440321,-0.47413644,,2.240637633,1.36197682,-0.566361989,-1.587989909,0.03495773
1.862165309,1.389219747,0.028440321,-0.47413644,,2.241078639,1.39816279,-0.551873369,-1.553464356,0.032944044
1.862774391,0.068726192,0.003047942,-0.029500692,,2.241160165,0.174098178,-1.133748301,-2.715200133,0.102235673
1.862774391,0.068726192,0.003047942,-0.029500692,,2.242479378,0.840034255,-0.793173113,-2.084552548,0.064682805
1.864597221,2.48057199,0.007430937,-0.651915656,,2.243059016,2.211421958,-0.274659541,-0.77477178,-0.007600462
1.867138714,2.694366173,0.001396106,-0.664967369,,2.243081091,0.805077769,-0.809547169,-2.117709678,0.06670358
1.869345279,1.248596205,0.028882596,-0.438207055,,2.243335564,0.0681857,-1.193768738,-2.8143458,0.1081382
1.869345279,1.248596205,0.028882596,-0.438207055,,2.243397644,2.980541253,-0.107541068,-0.019458366,-0.001749267
1.870120641,2.409426848,0.009471966,-0.64583077,,2.2441193,2.596194913,-0.179449094,-0.400672395,-0.015877353
1.872883551,1.859344757,0.022989086,-0.572744021,,2.244374068,2.314243154,-0.246745739,-0.675334727,-0.011015458
1.872883551,1.859344757,0.022989086,-0.572744021,,2.244715533,2.830478512,-0.133526295,-0.169202792,-0.011377053
1.873523256,3,-0.006165355,-0.670720465,,2.244745039,2.786172662,-0.141589642,-0.213222253,-0.013072412
1.874651921,1.103200456,0.028568433,-0.398123895,,2.247022249,1.729997763,-0.427014758,-1.236369626,0.014997989
1.874651921,1.103200456,0.028568433,-0.398123895,,2.249201112,2.878547342,-0.125290523,-0.121321916,-0.0089733
1.87499905,2.753422202,-0.000247033,-0.667134744,,2.249716656,0.290977662,-1.06897549,-2.604073358,0.09623008
1.875644062,2.338281705,0.011503838,-0.638941901,,2.250296071,0.256354022,-1.087771432,-2.636650394,0.098203785
1.875644062,2.338281705,0.011503838,-0.638941901,,2.250581968,2.846631731,-0.130924202,-0.153111153,-0.010614527
1.87830058,0.964488478,0.027523623,-0.357125618,,2.255615167,2.772555727,-0.144445661,-0.226660456,-0.013406867
1.87830058,0.964488478,0.027523623,-0.357125618,,2.258539875,1.833173171,-0.390814132,-1.136866975,0.010122689
1.882045416,2.254780061,0.013849929,-0.629839195,,2.259299108,2.114158707,-0.301922908,-0.867565381,-0.003141722
1.882045416,2.254780061,0.013849929,-0.629839195,,2.259376302,2.938148276,-0.115879399,-0.061826798,-0.005125019
1.882859385,2.812478231,-0.001862339,-0.668731405,,2.261236141,2.482016752,-0.204809547,-0.511872713,-0.014475159
1.882859385,2.812478231,-0.001862339,-0.668731405,,2.263021434,2.988849356,-0.107893273,-0.011149956,-0.001016214
1.88360961,0.825812384,0.025788748,-0.313445989,,2.265287197,2.015215574,-0.331546187,-0.962154623,0.001490496
1.88360961,0.825812384,0.025788748,-0.313445989,,2.266240568,2.274271093,-0.256643159,-0.713022017,-0.009007467
1.88611099,1.63121652,0.026816443,-0.528691838,,2.267459846,2.630297194,-0.172299087,-0.366809045,-0.015411941
1.886240886,2.911124367,-0.004352759,-0.670320223,,2.27045472,1.23877678,-0.615165504,-1.702222561,0.043355469
1.886240886,2.911124367,-0.004352759,-0.670320223,,2.270863162,0.959840529,-0.736476019,-1.967419576,0.059254996
1.887112177,0.688327493,0.023313704,-0.267553208,,2.2711837,1.343048589,-0.572270183,-1.602942252,0.037486028
1.887112177,0.688327493,0.023313704,-0.267553208,,2.271895482,0.856954177,-0.783608257,-2.065074338,0.065178452
1.8902537,0.550438482,0.020095611,-0.218954335,,2.272470019,1.413825539,-0.54390337,-1.535457977,0.033559489
1.8902537,0.550438482,0.020095611,-0.218954335,,2.272639905,0.787402578,-0.816215511,-2.131054987,0.069188595
1.89262948,1.477230891,0.028491256,-0.494648402,,2.272671866,2.738904895,-0.151106372,-0.259825075,-0.014079203
1.89262948,1.477230891,0.028491256,-0.494648402,,2.273061859,2.570705022,-0.184823874,-0.425060887,-0.015184143
1.893045698,0.412943678,0.016152983,-0.167963944,,2.273804638,0.685017853,-0.865324865,-2.228118933,0.075100497
1.893045698,0.412943678,0.016152983,-0.167963944,,2.275366944,2.649370444,-0.168456004,-0.347962542,-0.01519374
1.896293303,0.275300278,0.011483973,-0.114420236,,2.275537413,1.518441242,-0.503110703,-1.435573658,0.027854266
1.896293303,0.275300278,0.011483973,-0.114420236,,2.27590703,2.945146873,-0.115966154,-0.054830261,-0.004590877
1.897101074,2.177276425,0.016058792,-0.620244658,,2.277182717,0.409950197,-1.004065386,-2.488333772,0.091010707
1.899461825,0.137452383,0.006085811,-0.058335026,,2.27852679,0.308049858,-1.058127795,-2.584421189,0.096894743
1.899461825,0.137452383,0.006085811,-0.058335026,,2.279003401,2.880503008,-0.126615353,-0.119319717,-0.008761827
1.90145281,1.780601932,0.024868912,-0.558007274,,2.279439784,0.239010551,-1.095633376,-2.649392615,0.100864756
1.902173913,0,0,0,,2.279980236,1.913978431,-0.362966981,-1.058017162,0.006989518
1.906202164,1.321242028,0.029530246,-0.456547781,,2.280790274,0.137151766,-1.15232723,-2.745016912,0.106678217
1.906202164,1.321242028,0.029530246,-0.456547781,,2.281209013,2.68566154,-0.161343468,-0.312214302,-0.014805084
1.907178491,2.955562183,-0.005624312,-0.67011529,,2.283526393,2.257515019,-0.260545993,-0.728351832,-0.007808844
1.911508806,1.175846279,0.029587812,-0.418008196,,2.285221931,2.818072915,-0.137353797,-0.18136853,-0.011621745
1.912156733,2.099772789,0.018216523,-0.609714717,,2.286064357,1.947210953,-0.351956411,-1.025806596,0.005621249
1.915986457,1.033792415,0.028880132,-0.377476091,,2.286528584,2.55430423,-0.188262414,-0.440763802,-0.014740238
1.919635115,0.895080437,0.027438077,-0.335185268,,2.288357902,2.360696254,-0.233524463,-0.628601014,-0.01093359
1.919635115,0.895080437,0.027438077,-0.335185268,,2.290732959,2.023593678,-0.327779134,-0.952432539,0.002179062
1.919896121,2.86668655,-0.003581201,-0.669080997,,2.292186033,2.837248561,-0.134400352,-0.162304037,-0.01079743
1.919896121,2.86668655,-0.003581201,-0.669080997,,2.295534128,2.887501605,-0.126399726,-0.112316036,-0.0083077
1.922110012,2.586024618,0.004411759,-0.658186706,,2.295638726,1.792799991,-0.402615997,-1.172430805,0.013906613
1.922110012,2.586024618,0.004411759,-0.658186706,,2.298125967,2.801908117,-0.140571005,-0.197326695,-0.012087352
1.922110012,2.586024618,0.004411759,-0.658186706,,2.301168655,1.359327515,-0.564011507,-1.584335713,0.038036212
1.922110012,2.586024618,0.004411759,-0.658186706,,2.301597332,0.838841614,-0.79035449,-2.078744723,0.067706
1.922110012,2.586024618,0.004411759,-0.658186706,,2.301740041,0.804246501,-0.806588199,-2.111570738,0.069693999
1.922110012,2.586024618,0.004411759,-0.658186706,,2.302013969,1.393918495,-0.550131615,-1.551371509,0.036125331
1.924040914,0.756999945,0.025276476,-0.290441936,,2.303463091,2.171654913,-0.283495928,-0.809796502,-0.003764126
1.924040914,0.756999945,0.025276476,-0.290441936,,2.30599618,2.120496501,-0.298075064,-0.858672716,-0.00151603
1.927182437,0.619110934,0.02235004,-0.243180284,,2.307287483,2.519263944,-0.195675575,-0.474325165,-0.013780491
1.927212392,2.022269153,0.020300162,-0.598257861,,2.307500015,1.891942866,-0.368774502,-1.076945549,0.00934272
1.927212392,2.022269153,0.020300162,-0.598257861,,2.307611794,2.196203385,-0.276438357,-0.786006645,-0.004578362
1.927633433,2.514879475,0.006561828,-0.653300092,,2.307779625,0.290565894,-1.06589901,-2.597225342,0.099554344
1.927633433,2.514879475,0.006561828,-0.653300092,,2.308113203,0.256150227,-1.084606606,-2.629621789,0.101550291
1.928116096,3,-0.006894157,-0.669565226,,2.308194085,2.750959361,-0.149679703,-0.247605472,-0.013358091
1.929970348,2.645080647,0.002629969,-0.661370505,,2.30842954,2.401529398,-0.222904947,-0.588336922,-0.011358154
1.929970348,2.645080647,0.002629969,-0.661370505,,2.309738713,1.167039199,-0.64321031,-1.766086486,0.049377116
1.930022068,1.701859108,0.026628907,-0.542342554,,2.309941772,1.02836462,-0.703544803,-1.897773548,0.057292919
1.930022068,1.701859108,0.026628907,-0.542342554,,2.311296175,1.275437866,-0.597624955,-1.662948316,0.043292847
1.930149198,0.481419027,0.018676904,-0.19343501,,2.311568266,2.955939908,-0.117014036,-0.04403877,-0.00373222
1.932941196,0.343924222,0.014260834,-0.141252258,,2.311809823,2.845556664,-0.133889469,-0.153984097,-0.010300388
1.932941196,0.343924222,0.014260834,-0.141252258,,2.311814646,0.921360814,-0.751632568,-1.999161671,0.063500739
1.933156853,2.443734333,0.008729609,-0.64760237,,2.312011503,2.990606898,-0.111996371,-0.009391997,-0.000852988
1.933156853,2.443734333,0.008729609,-0.64760237,,2.313023546,0.721731093,-0.84529064,-2.188491499,0.07500185
1.936149259,0.206178575,0.009096949,-0.086496498,,2.313453596,0.615280096,-0.897316793,-2.28938653,0.081145667
1.936149259,0.206178575,0.009096949,-0.086496498,,2.315097589,2.423259083,-0.217525117,-0.567082537,-0.011675908
1.936540559,1.54787348,0.028699522,-0.509932491,,2.315133025,0.478528809,-0.966284351,-2.418701179,0.089120411
1.937830684,2.704136676,0.000845527,-0.663985345,,2.315826001,1.476082948,-0.517128259,-1.471861942,0.032191613
1.937830684,2.704136676,0.000845527,-0.663985345,,2.31618981,2.608066805,-0.176806474,-0.387641854,-0.014356463
1.93865494,1.92538713,0.022657948,-0.582786885,,2.316271273,1.957156683,-0.347310723,-1.014067771,0.006497261
1.93865494,1.92538713,0.022657948,-0.582786885,,2.317311624,0.372564771,-1.021448917,-2.518613018,0.095361857
1.938680274,2.37258919,0.010892404,-0.641098375,,2.318199761,1.584948988,-0.475691178,-1.368178685,0.026243647
1.938680274,2.37258919,0.010892404,-0.641098375,,2.319237131,2.682087546,-0.162374806,-0.315190318,-0.014156905
1.938861347,0.068726192,0.003210575,-0.029429717,,2.319440678,0.174098178,-1.129349688,-2.70537868,0.106926937
1.940833726,2.911124367,-0.004938091,-0.669172448,,2.319635627,2.462623385,-0.208217257,-0.528847856,-0.012410309
1.943059049,1.393887851,0.029992892,-0.474061913,,2.320073753,0.0681857,-1.189531546,-2.804660019,0.113006288
1.943059049,1.393887851,0.029992892,-0.474061913,,2.321030619,1.111785002,-0.666325062,-1.817258504,0.053093079
1.943059049,1.393887851,0.029992892,-0.474061913,,2.321073909,1.082221187,-0.679189771,-1.845322637,0.05478124
1.943059049,1.393887851,0.029992892,-0.474061913,,2.323134925,2.334359515,-0.239127867,-0.652461124,-0.008902705
1.943059049,1.393887851,0.029992892,-0.474061913,,2.323219412,2.806136259,-0.140693154,-0.192992126,-0.011693231
1.943059049,1.393887851,0.029992892,-0.474061913,,2.325456446,2.235645675,-0.26491648,-0.747165809,-0.005376487
1.944203694,2.301444047,0.013029236,-0.633793439,,2.325473694,0.561231797,-0.923619255,-2.339079655,0.084892941
1.944203694,2.301444047,0.013029236,-0.633793439,,2.325576404,2.630708848,-0.17226473,-0.365345304,-0.01418433
1.944203694,2.301444047,0.013029236,-0.633793439,,2.325831729,0.532078005,-0.938321399,-2.366644639,0.086597194
1.944203694,2.301444047,0.013029236,-0.633793439,,2.326741564,2.91137556,-0.124594548,-0.088487652,-0.006783292
1.944203694,2.301444047,0.013029236,-0.633793439,,2.328193231,1.721347838,-0.42572044,-1.237584996,0.019279285
1.944203694,2.301444047,0.013029236,-0.633793439,,2.329332351,2.754521071,-0.149501647,-0.243893704,-0.012978858
1.94569102,2.763192705,-0.000927483,-0.666028763,,2.329939166,2.83060916,-0.137003478,-0.168730139,-0.010757228
1.94569102,2.763192705,-0.000927483,-0.666028763,,2.330297032,2.050482575,-0.317748634,-0.9239869,0.002684519
1.948365691,1.248492102,0.030432792,-0.437073203,,2.331728376,1.63878086,-0.45512641,-1.315711878,0.023950323
1.953551356,2.822248734,-0.002673623,-0.66749858,,2.332047494,0.014536402,-1.220095788,-2.853273626,0.116816984
1.953551356,2.822248734,-0.002673623,-0.66749858,,2.332176293,2.588597262,-0.180676032,-0.40624542,-0.013841748
1.953551356,2.822248734,-0.002673623,-0.66749858,,2.333858868,1.667859517,-0.444476169,-1.287884399,0.022464107
1.953551356,2.822248734,-0.002673623,-0.66749858,,2.336554962,1.28915094,-0.590541993,-1.647110653,0.043791733
1.953551356,2.822248734,-0.002673623,-0.66749858,,2.336834949,0.906103116,-0.757187886,-2.010590376,0.065644759
1.953551356,2.822248734,-0.002673623,-0.66749858,,2.337536976,0.735920111,-0.837053161,-2.171956008,0.075447517
1.953672334,1.103096353,0.030091598,-0.397081696,,2.338300849,1.905463729,-0.362804361,-1.061583975,0.010114779
1.953672334,1.103096353,0.030091598,-0.397081696,,2.340375398,2.685649257,-0.161866767,-0.311372431,-0.01369921
1.957320992,0.964384375,0.028984593,-0.356182506,,2.34042075,2.317603442,-0.242828423,-0.667721587,-0.007689549
1.959259353,2.223940411,0.015388865,-0.624746223,,2.340713293,1.459313612,-0.522233965,-1.485179066,0.03438958
1.959259353,2.223940411,0.015388865,-0.624746223,,2.340987986,1.937445025,-0.352365381,-1.030924528,0.008635117
1.960969651,0.825672396,0.027123192,-0.312615047,,2.341342275,1.824349395,-0.389494294,-1.1384842,0.014446954
1.960969651,0.825672396,0.027123192,-0.312615047,,2.341953685,0.357836594,-1.027831151,-2.529329353,0.097586596
1.960969651,0.825672396,0.027123192,-0.312615047,,2.343594651,0.188536332,-1.11988728,-2.688648971,0.107541724
1.960969651,0.825672396,0.027123192,-0.312615047,,2.346101814,2.534521085,-0.191808661,-0.458363513,-0.01284264
1.960969651,0.825672396,0.027123192,-0.312615047,,2.347116861,2.887501605,-0.1292161,-0.11221564,-0.008052995
1.960969651,0.825672396,0.027123192,-0.312615047,,2.35066985,2.63493699,-0.171405263,-0.360699962,-0.013570979
1.961771331,2.955562183,-0.006303318,-0.668917808,,2.354970769,2.593268037,-0.179558785,-0.401130866,-0.013243423
1.964111174,0.687783386,0.024504056,-0.266698851,,2.359686205,2.009668783,-0.328795273,-0.960699354,0.005992072
1.967224199,1.846644305,0.024732776,-0.568799317,,2.362074495,2.461254889,-0.207605232,-0.528580984,-0.01092376
1.967252698,0.549894376,0.021119053,-0.218210927,,2.362111152,1.182643238,-0.633589159,-1.745166688,0.051158344
1.967252698,0.549894376,0.021119053,-0.218210927,,2.362134688,2.955939908,-0.120853183,-0.044021455,-0.003653169
1.970044695,0.412399571,0.016973436,-0.167337756,,2.362363954,1.009998698,-0.708721955,-1.908856382,0.061013027
1.972836693,0.274904767,0.012065284,-0.113978245,,2.362388693,2.874910097,-0.13177071,-0.124681477,-0.008583422
1.972836693,0.274904767,0.012065284,-0.113978245,,2.363964946,2.380679063,-0.226412793,-0.606000369,-0.008734896
1.972836693,0.274904767,0.012065284,-0.113978245,,2.364077731,2.616965722,-0.174826089,-0.377881365,-0.013143545
1.972836693,0.274904767,0.012065284,-0.113978245,,2.364310615,0.631523296,-0.886341225,-2.267460435,0.082868641
1.972836693,0.274904767,0.012065284,-0.113978245,,2.36530347,2.538455662,-0.190688632,-0.453946677,-0.012284397
1.972836693,0.274904767,0.012065284,-0.113978245,,2.36640144,0.461273181,-0.972200858,-2.428354525,0.092890931
1.974315012,2.146436775,0.017703237,-0.614760999,,2.367288343,1.835739127,-0.38430671,-1.125354271,0.015147989
1.974315012,2.146436775,0.017703237,-0.614760999,,2.36944028,2.282098774,-0.25095905,-0.700182179,-0.005244358
1.974488961,2.86668655,-0.004107723,-0.667887002,,2.370254989,0.084888585,-1.17701389,-2.782367994,0.115227911
1.974488961,2.86668655,-0.004107723,-0.667887002,,2.371010977,1.562112632,-0.481285119,-1.384469588,0.030203259
1.975548781,0.137452383,0.006403038,-0.058190025,,2.37182484,2.755611763,-0.150123789,-0.242368258,-0.012243489
1.975629274,2.613531995,0.003515259,-0.65868601,,2.371880653,2.406474587,-0.220021093,-0.580856244,-0.009160949
1.975629274,2.613531995,0.003515259,-0.65868601,,2.373590872,2.106845961,-0.299067787,-0.867146888,0.002128213
1.97826087,0,0,0,,2.376772246,0.83458123,-0.788034424,-2.073361171,0.071803622
1.980451638,1.618516068,0.028712227,-0.524399702,,2.376892462,0.80543893,-0.801711672,-2.100974168,0.073484697
1.981074309,2.5556097,0.005351144,-0.65500374,,2.377420627,2.990606898,-0.117771119,-0.009391847,-0.000837671
1.981074309,2.5556097,0.005351144,-0.65500374,,2.377646452,1.357839607,-0.560285348,-1.577282803,0.042028324
1.982708936,3,-0.007669815,-0.668315119,,2.378358529,1.386978425,-0.548582955,-1.549594418,0.040419282
1.98348961,2.672588024,0.001635151,-0.661584959,,2.379056822,2.793355136,-0.144325026,-0.205201051,-0.011328493
1.985222577,1.321137925,0.031093241,-0.455312417,,2.380361987,2.702368407,-0.159151262,-0.294367493,-0.012691225
1.985222577,1.321137925,0.031093241,-0.455312417,,2.380507119,1.993064036,-0.332908078,-0.974826522,0.007821418
1.986597729,2.484464557,0.007630813,-0.649768025,,2.381276151,2.465189466,-0.206279595,-0.524014646,-0.010298243
1.986970128,1.46453044,0.03041455,-0.490155097,,2.38193171,0.287404159,-1.063287193,-2.590444426,0.10398387
1.986970128,1.46453044,0.03041455,-0.490155097,,2.382212711,0.25841302,-1.079049443,-2.61772295,0.105715602
1.98937067,2.068933139,0.019947771,-0.603846708,,2.383452465,1.731923977,-0.419017194,-1.22227854,0.021519269
1.98937067,2.068933139,0.019947771,-0.603846708,,2.384485119,2.360787763,-0.230614452,-0.624049168,-0.007281185
1.990529219,1.175742176,0.031142115,-0.416865335,,2.384717422,2.813970668,-0.141390573,-0.184849191,-0.010683654
1.991349946,2.731644053,-0.000244938,-0.663912464,,2.387369939,1.196356312,-0.626343914,-1.729108729,0.05169716
1.99212115,2.413319415,0.009912945,-0.643723092,,2.387384257,0.994741001,-0.714112139,-1.920162002,0.063182979
1.995006869,1.033688312,0.03038834,-0.376435545,,2.38822555,0.888271461,-0.762445138,-2.020972702,0.069318271
1.995426566,2.911124367,-0.005560097,-0.667928763,,2.388789444,0.751574079,-0.826598505,-2.150464958,0.077207703
1.995426566,2.911124367,-0.005560097,-0.667928763,,2.388824045,0.645712314,-0.877929174,-2.250766445,0.08333609
1.995793458,1.767901481,0.02669435,-0.553880239,,2.388935757,1.303100506,-0.581851008,-1.627807161,0.04572275
1.99764457,2.342174272,0.012174962,-0.636874622,,2.390898772,2.153997547,-0.284801407,-0.821015872,0.00087473
1.99764457,2.342174272,0.012174962,-0.636874622,,2.391043502,0.446545004,-0.978379299,-2.438965823,0.095097213
1.998655528,0.894976334,0.028865414,-0.33425484,,2.392275884,1.439781555,-0.526951855,-1.497994613,0.038179277
1.998655528,0.894976334,0.028865414,-0.33425484,,2.392770892,0.340864943,-1.03388615,-2.538549592,0.101434439
1.999181604,2.833764405,-0.003398669,-0.666716682,,2.392898886,2.945146873,-0.124402613,-0.054769206,-0.004350077
1.999181604,2.833764405,-0.003398669,-0.666716682,,2.393051138,2.221995134,-0.265962633,-0.756111865,-0.001869662
1.999210282,2.790700082,-0.002109904,-0.665665807,,2.394088977,0.204876614,-1.107826631,-2.666490274,0.109592692
1.999210282,2.790700082,-0.002109904,-0.665665807,,2.394408962,0.099326739,-1.167304855,-2.765549925,0.115897565
2.001039911,0.756455838,0.026545594,-0.289503184,,2.394675128,2.411145363,-0.218283942,-0.575296473,-0.008365717
2.001039911,0.756455838,0.026545594,-0.289503184,,2.395047475,2.178546018,-0.277761255,-0.797359941,2.13907E-05
2.004181435,0.618566827,0.023468843,-0.242355349,,2.395898269,1.545343297,-0.48620062,-1.397662418,0.03245459
2.004426329,1.991429503,0.022099635,-0.592012599,,2.397356423,2.53771981,-0.190329021,-0.453566028,-0.011161427
2.004426329,1.991429503,0.022099635,-0.592012599,,2.397497882,1.112382785,-0.661708531,-1.807399366,0.057006172
2.004426329,1.991429503,0.022099635,-0.592012599,,2.397549272,1.077287287,-0.676987337,-1.840641387,0.059007162
2.004426329,1.991429503,0.022099635,-0.592012599,,2.398376935,2.85231275,-0.136441579,-0.146918494,-0.009210797
2.004426329,1.991429503,0.022099635,-0.592012599,,2.398660965,2.577281076,-0.182293452,-0.415360554,-0.011701113
2.004426329,1.991429503,0.022099635,-0.592012599,,2.3988086,2.670169854,-0.164846613,-0.325375393,-0.012314162
2.007148195,0.48087492,0.019609548,-0.192730332,,2.400127599,0.563167033,-0.918305842,-2.327403856,0.088744954
2.009940193,0.343380115,0.0149701,-0.140673842,,2.400552625,0.528558278,-0.935755108,-2.360100316,0.090794073
2.009940193,0.343380115,0.0149701,-0.140673842,,2.40575231,0.017256307,-1.214218576,-2.840775034,0.121514255
2.011937885,2.276886606,0.014290687,-0.629682836,,2.406332507,2.597243579,-0.178296881,-0.395839595,-0.011671231
2.011937885,2.276886606,0.014290687,-0.629682836,,2.408170718,2.932555365,-0.126889157,-0.067305837,-0.005122062
2.012236215,0.206178575,0.009560401,-0.086273887,,2.409373996,2.303678546,-0.243973209,-0.67721549,-0.004233064
2.012236215,0.206178575,0.009560401,-0.086273887,,2.409398533,1.743313709,-0.413635017,-1.20889197,0.022281426
2.014948304,0.068726192,0.003375984,-0.029353735,,2.409646999,1.62767527,-0.454884045,-1.318260408,0.02862183
2.016364171,2.955562183,-0.007024356,-0.667621637,,2.409704567,2.481079251,-0.202112033,-0.50754436,-0.009549952
2.016364171,2.955562183,-0.007024356,-0.667621637,,2.410057766,1.899686066,-0.361010667,-1.060817149,0.014041665
2.020119209,2.878202221,-0.004909472,-0.666978561,,2.410103158,2.655031181,-0.167523353,-0.339813244,-0.011958457
2.024362716,1.689158657,0.028518943,-0.538042308,,2.410108625,2.370521217,-0.227442645,-0.613373723,-0.006476482
2.024362716,1.689158657,0.028518943,-0.538042308,,2.412176127,1.662194831,-0.442222519,-1.285337758,0.026856493
2.025151962,1.390010589,0.031639782,-0.471748572,,2.412321362,1.926626533,-0.352222235,-1.03509445,0.01278112
2.025151962,1.390010589,0.031639782,-0.471748572,,2.412382927,2.395083293,-0.221531075,-0.589778843,-0.007137909
2.026993543,2.19938297,0.016755868,-0.620320549,,2.415688035,2.082576445,-0.304228479,-0.88700124,0.005327097
2.027386104,1.248387999,0.032009046,-0.435823865,,2.417343586,1.846225646,-0.378178959,-1.110731786,0.017215457
2.027386104,1.248387999,0.032009046,-0.435823865,,2.425613261,2.988849356,-0.122085947,-0.011145256,-0.000959006
2.029148537,2.641039373,0.00251963,-0.658959903,,2.42722997,2.44623593,-0.209367224,-0.540112588,-0.007944338
2.029148537,2.641039373,0.00251963,-0.658959903,,2.427251121,1.059174723,-0.683241742,-1.853947941,0.061611115
2.030881207,1.535173028,0.030641275,-0.50543053,,2.42730416,0.956795552,-0.728912435,-1.95088207,0.067449435
2.030881207,1.535173028,0.030641275,-0.50543053,,2.427482837,1.128661711,-0.652967799,-1.788143118,0.057673697
2.032692746,1.10299225,0.031638717,-0.395937735,,2.427961404,1.972594922,-0.336918751,-0.990159415,0.011292907
2.032692746,1.10299225,0.031638717,-0.395937735,,2.42821975,1.231362924,-0.609305013,-1.690871934,0.051888504
2.032995588,1.912686679,0.024374933,-0.578772707,,2.428438402,0.681836323,-0.857951918,-2.211155823,0.083331935
2.032995588,1.912686679,0.024374933,-0.578772707,,2.42910676,2.740437343,-0.153291127,-0.256419738,-0.011194724
2.034593571,2.583117077,0.004445337,-0.655532125,,2.429227734,0.580010956,-0.9081563,-2.307449947,0.089315185
2.036341405,0.964280272,0.030467414,-0.355151105,,2.42980546,0.511074314,-0.942922665,-2.372596288,0.093400259
2.036341405,0.964280272,0.030467414,-0.355151105,,2.4307212,0.409443555,-0.995365649,-2.468539941,0.099476954
2.037008873,2.700095402,0.000536736,-0.66157133,,2.430958776,2.311877833,-0.241125097,-0.668068567,-0.003508078
2.037301776,3,-0.008493305,-0.666963396,,2.433341214,2.631357646,-0.171655838,-0.362096034,-0.011066238
2.037301776,3,-0.008493305,-0.666963396,,2.433372455,0.135910548,-1.144126117,-2.725807783,0.116120319
2.037301776,3,-0.008493305,-0.666963396,,2.433770059,2.896877098,-0.132400089,-0.102682219,-0.006929663
2.038788553,0.824777646,0.028471321,-0.31146383,,2.43442573,0.034395982,-1.202451121,-2.820738229,0.122363583
2.038788553,0.824777646,0.028471321,-0.31146383,,2.434938232,1.5062893,-0.498838851,-1.430150766,0.03676041
2.040038605,2.525194782,0.006395832,-0.651562754,,2.436508949,2.065971698,-0.308140456,-0.901022175,0.007196663
2.040038605,2.525194782,0.006395832,-0.651562754,,2.439190949,1.607768227,-0.46054524,-1.333805122,0.03134417
2.041056813,2.922640038,-0.006439925,-0.666891214,,2.43991532,2.225932756,-0.263000483,-0.749140429,0.000265641
2.041110172,0.687239279,0.025709996,-0.265787056,,2.442146701,2.432705532,-0.211993153,-0.552280297,-0.006905098
2.041110172,0.687239279,0.025709996,-0.265787056,,2.442404835,2.519139706,-0.193312113,-0.469641082,-0.009039347
2.042049202,2.121879334,0.019159164,-0.610025824,,2.442976962,1.675715695,-0.435675776,-1.269219331,0.027808201
2.044251695,0.549350269,0.022155555,-0.217422675,,2.443742604,2.973901852,-0.125005549,-0.026074526,-0.002134674
2.044251695,0.549350269,0.022155555,-0.217422675,,2.449898092,1.774773493,-0.400575236,-1.174955467,0.022809546
2.044811851,2.845280076,-0.004177621,-0.665836448,,2.453152636,2.773726587,-0.148623288,-0.223598452,-0.010214762
2.044811851,2.845280076,-0.004177621,-0.665836448,,2.455478762,2.138388129,-0.286343412,-0.830900575,0.004859444
2.04484053,2.802215753,-0.002828302,-0.664874892,,2.455658855,2.83713833,-0.140290253,-0.161519954,-0.00887715
2.044869209,2.75915143,-0.001443341,-0.663608608,,2.456664639,1.075648466,-0.674342592,-1.834435278,0.062254022
2.044869209,2.75915143,-0.001443341,-0.663608608,,2.456932385,2.553247176,-0.186134752,-0.43635979,-0.009098379
2.045562025,2.454049639,0.00880044,-0.645978545,,2.456947745,1.110039955,-0.659346871,-1.801869318,0.060318987
2.047043693,0.411855464,0.017804117,-0.166678974,,2.458549247,0.562297951,-0.915312707,-2.320069747,0.091930898
2.047043693,0.411855464,0.017804117,-0.166678974,,2.458701946,0.527970063,-0.932628557,-2.352521905,0.093965865
2.04937307,0.274559366,0.012655909,-0.113535313,,2.458813235,2.794342119,-0.145868651,-0.203401463,-0.009774036
2.04937307,0.274559366,0.012655909,-0.113535313,,2.460403729,2.167529862,-0.277984597,-0.80292442,0.003825592
2.051085446,2.382904497,0.011191321,-0.639587998,,2.4615001,2.234132043,-0.259940127,-0.739783702,0.001048095
2.051085446,2.382904497,0.011191321,-0.639587998,,2.461861367,2.719413119,-0.156734609,-0.276236633,-0.010389997
2.051635738,0.137452383,0.006725221,-0.058034653,,2.463456028,0.017139676,-1.210777894,-2.832705984,0.125329106
2.051635738,0.137452383,0.006725221,-0.058034653,,2.464603926,2.57320968,-0.182115592,-0.416930646,-0.00912628
2.054347826,0,0,0,,2.464723629,2.985052497,-0.125625379,-0.014934438,-0.00123168
2.057104861,2.044375698,0.021476093,-0.598808355,,2.466454591,0.886682828,-0.758696405,-2.011890001,0.07354143
2.057104861,2.044375698,0.021476093,-0.598808355,,2.46646992,2.365485018,-0.226793742,-0.614864218,-0.00363874
2.061564847,1.833943854,0.026544406,-0.564597741,,2.46660392,2.917075961,-0.13187838,-0.082579496,-0.005627064
2.061564847,1.833943854,0.026544406,-0.564597741,,2.467018486,0.749985446,-0.822838077,-2.141211188,0.081431216
2.061994418,2.967077854,-0.007983379,-0.666452219,,2.467185586,0.993120438,-0.710288049,-1.911066856,0.06751012
2.061994418,2.967077854,-0.007983379,-0.666452219,,2.468385751,2.386175668,-0.221858101,-0.595089493,-0.004229417
2.06537876,2.317616831,0.01342118,-0.632796157,,2.468501634,1.29869825,-0.579155507,-1.62204831,0.050292682
2.065749456,2.889717892,-0.005769011,-0.665969082,,2.468534973,1.191865578,-0.623642887,-1.722962148,0.056321906
2.067315489,1.317260663,0.032753161,-0.452941341,,2.468625375,0.644091751,-0.874076124,-2.24122075,0.087671639
2.069063041,1.460653178,0.03206873,-0.487751837,,2.469265898,1.623073131,-0.45326956,-1.315901289,0.032191856
2.069549631,1.175638073,0.03272025,-0.415610154,,2.469528709,2.495468225,-0.197621163,-0.491005887,-0.007300485
2.069549631,1.175638073,0.03272025,-0.415610154,,2.46973458,0.44606951,-0.97395406,-2.428363598,0.099441439
2.074027282,1.033584209,0.031918229,-0.375296915,,2.469911556,0.340398817,-1.029508808,-2.528116427,0.105820668
2.074027282,1.033584209,0.031918229,-0.375296915,,2.470522782,1.656501037,-0.441066318,-1.284239162,0.030420669
2.074792285,1.605815617,0.030662075,-0.519880198,,2.470687708,2.320559055,-0.237519324,-0.657218401,-0.001837404
2.074792285,1.605815617,0.030662075,-0.519880198,,2.471229642,0.204410488,-1.103409756,-2.656026182,0.114216743
2.07647443,0.894081584,0.030278298,-0.33300894,,2.471255245,2.028958308,-0.317506977,-0.9329337,0.010880151
2.078858814,0.755561087,0.027836976,-0.288373495,,2.471841762,1.435379299,-0.524203936,-1.49260914,0.042796613
2.079672075,2.252329165,0.015636054,-0.62533323,,2.47310004,0.098851244,-1.162787959,-2.75485566,0.120871763
2.079672075,2.252329165,0.015636054,-0.62533323,,2.473155925,2.704274446,-0.159102814,-0.290622243,-0.010030753
2.081180432,0.61802272,0.024601018,-0.241477983,,2.477063303,1.540852562,-0.483367076,-1.392489416,0.037199206
2.081180432,0.61802272,0.024601018,-0.241477983,,2.477963765,0.832526287,-0.783182199,-2.061519174,0.077260662
2.081199485,1.97495594,0.02361551,-0.587738265,,2.478083981,0.803383986,-0.796855608,-2.089084125,0.07894223
2.081199485,1.97495594,0.02361551,-0.587738265,,2.478389627,2.612777542,-0.174533963,-0.378488278,-0.00914764
2.082667799,2.66854675,0.001419044,-0.659000321,,2.47967427,2.417612401,-0.214286381,-0.564543938,-0.004659416
2.082667799,2.66854675,0.001419044,-0.659000321,,2.480195475,2.11867647,-0.290800697,-0.847441398,0.007114719
2.084147193,0.480330813,0.020553054,-0.191986047,,2.480567206,1.352145162,-0.556770236,-1.570025217,0.047961493
2.084147193,0.480330813,0.020553054,-0.191986047,,2.481279283,1.38128398,-0.545054081,-1.542441628,0.046365064
2.08647657,0.343034715,0.015690554,-0.140147467,,2.481715382,0.286801212,-1.057602561,-2.576930559,0.109763975
2.086687061,2.934155709,-0.007381629,-0.665749783,,2.481996383,0.257810073,-1.073352766,-2.604199962,0.1115618
2.086687061,2.934155709,-0.007381629,-0.665749783,,2.482085987,2.669426582,-0.164687026,-0.323975316,-0.009572701
2.088112833,2.610624455,0.003438457,-0.655827772,,2.484277958,2.926469063,-0.131940817,-0.073244033,-0.004987185
2.088772592,0.205833175,0.010017881,-0.085894082,,2.48444544,2.481937827,-0.200091408,-0.50312542,-0.006251651
2.089619433,3,-0.009328173,-0.665565995,,2.48537676,1.734372412,-0.412631896,-1.209155987,0.027019799
2.090134105,1.75520103,0.028582767,-0.549500973,,2.486027235,2.177263317,-0.274180126,-0.791628389,0.004799579
2.090134105,1.75520103,0.028582767,-0.549500973,,2.49182485,1.837460516,-0.377156986,-1.111359538,0.021860251
2.090442099,2.856795747,-0.00501294,-0.66485324,,2.491963004,1.006997622,-0.702677501,-1.894474733,0.068065466
2.090442099,2.856795747,-0.00501294,-0.66485324,,2.49332529,0.629170634,-0.879977425,-2.251753139,0.089870219
2.090470777,2.813731424,-0.003599923,-0.66398158,,2.49335568,1.176178946,-0.628895535,-1.734415252,0.058580781
2.090499456,2.770667102,-0.002150179,-0.662804013,,2.49407646,0.460302185,-0.965133167,-2.411348712,0.099926446
2.090528135,2.727602779,-0.000671492,-0.661321388,,2.494298566,2.260455415,-0.25174467,-0.71238546,0.001745748
2.090528135,2.727602779,-0.000671492,-0.661321388,,2.494917709,2.839802144,-0.140995525,-0.158575736,-0.008046479
2.09103526,0.068726192,0.003543903,-0.029272555,,2.497554641,0.084314842,-1.169596977,-2.764881233,0.123326527
2.09103526,0.068726192,0.003543903,-0.029272555,,2.499819928,2.533525368,-0.189158743,-0.453246474,-0.006754623
2.093557867,2.552702159,0.005486369,-0.65211179,,2.502397898,1.553745137,-0.477108797,-1.377211522,0.037947313
2.094727734,2.174825529,0.018201215,-0.615658867,,2.502442667,1.963829792,-0.335897463,-0.991278236,0.015919213
2.099002901,2.494779864,0.007547441,-0.647855691,,2.506401426,1.888348117,-0.359681107,-1.061887978,0.020039909
2.099002901,2.494779864,0.007547441,-0.647855691,,2.507404325,2.757344263,-0.151370115,-0.238571292,-0.008792025
2.104526322,2.423634722,0.010071049,-0.6419246,,2.508159401,2.131576455,-0.285861698,-0.832787624,0.008114348
2.104526322,2.423634722,0.010071049,-0.6419246,,2.508580863,1.718186331,-0.417033371,-1.221704307,0.029262018
2.107244874,1.386133327,0.03331506,-0.469289777,,2.508665021,1.915288584,-0.350894499,-1.036304021,0.018773655
2.107244874,1.386133327,0.03331506,-0.469289777,,2.508926891,2.557223053,-0.184348739,-0.430248617,-0.006821463
2.109479017,1.244510737,0.033669306,-0.433404246,,2.509066194,2.161021568,-0.277618742,-0.804968278,0.006828976
2.109768744,1.896213116,0.025967693,-0.57426934,,2.511382227,2.987408492,-0.129065788,-0.012580961,-0.000987257
2.109783392,2.097321893,0.020687039,-0.605058708,,2.512374538,2.455672856,-0.204920162,-0.52646913,-0.004114977
2.109783392,2.097321893,0.020687039,-0.605058708,,2.512487175,2.057030401,-0.307137613,-0.902563925,0.011887433
2.111379704,2.901233563,-0.006689069,-0.664853802,,2.512591746,2.849195246,-0.140367273,-0.149202993,-0.007444976
2.111379704,2.901233563,-0.006689069,-0.664853802,,2.514124078,2.781817165,-0.148182477,-0.214751382,-0.008425972
2.111713159,1.102888147,0.033207213,-0.394685335,,2.514328397,2.612043745,-0.17414144,-0.377782712,-0.007559605
2.111713159,1.102888147,0.033207213,-0.394685335,,2.516673419,2.94093719,-0.132486739,-0.058845917,-0.003947416
2.111713159,1.102888147,0.033207213,-0.394685335,,2.517527727,2.517463298,-0.191943926,-0.467588438,-0.005498403
2.111713159,1.102888147,0.033207213,-0.394685335,,2.517827797,0.90242761,-0.748522342,-1.989619341,0.075414918
2.111713159,1.102888147,0.033207213,-0.394685335,,2.518529824,0.732244604,-0.82835493,-2.150492996,0.085219378
2.111713159,1.102888147,0.033207213,-0.394685335,,2.519109745,2.68532091,-0.161871162,-0.307570782,-0.008209739
2.112974119,1.531295766,0.03229337,-0.502928829,,2.520428435,0.356758153,-1.017718803,-2.505195496,0.107675084
2.114160307,0.963385521,0.031936722,-0.353804161,,2.52064075,1.278965761,-0.584333001,-1.633664385,0.054345591
2.114312076,2.967077854,-0.008772335,-0.66501697,,2.520812207,2.739372995,-0.153869309,-0.255608855,-0.008357856
2.116607456,0.823882896,0.029834769,-0.310237414,,2.521096645,2.226427594,-0.259481264,-0.742306899,0.004671498
2.116607456,0.823882896,0.029834769,-0.310237414,,2.522069401,0.187457891,-1.109663449,-2.664424959,0.118316187
2.118703364,1.676458205,0.030466062,-0.533495881,,2.524799081,1.449128433,-0.515873175,-1.472805099,0.045079887
2.118703364,1.676458205,0.030466062,-0.533495881,,2.529110051,2.313006403,-0.237182232,-0.660081027,0.001640708
2.118703364,1.676458205,0.030466062,-0.533495881,,2.532077548,1.075779933,-0.670023386,-1.823734027,0.066393217
2.118703364,1.676458205,0.030466062,-0.533495881,,2.532289333,2.554684286,-0.184337695,-0.431489337,-0.00560217
2.118703364,1.676458205,0.030466062,-0.533495881,,2.532316032,1.104750704,-0.6573858,-1.796349895,0.064778087
2.118703364,1.676458205,0.030466062,-0.533495881,,2.533064742,0.5585771,-0.912772239,-2.312588815,0.096182958
2.118819636,2.358347056,0.012418167,-0.635532593,,2.533193374,0.529659906,-0.927344857,-2.339913993,0.097911738
2.118929074,0.686344529,0.026934013,-0.264686714,,2.534008498,2.609905133,-0.174200074,-0.378966135,-0.006586304
2.121250693,0.548806162,0.023203216,-0.216587335,,2.535105103,2.792967809,-0.14699449,-0.203606063,-0.007665068
2.121250693,0.548806162,0.023203216,-0.216587335,,2.536043483,2.067897117,-0.302809714,-0.890018459,0.012771603
2.121250693,0.548806162,0.023203216,-0.216587335,,2.537217095,0.014438154,-1.207676463,-2.824278341,0.130373062
2.121250693,0.548806162,0.023203216,-0.216587335,,2.537800485,2.529096818,-0.189147042,-0.455440104,-0.004724132
2.121250693,0.548806162,0.023203216,-0.216587335,,2.538096612,2.410059749,-0.214127494,-0.567903651,-0.001299249
2.121250693,0.548806162,0.023203216,-0.216587335,,2.538562215,2.881198422,-0.138030566,-0.117665715,-0.006077479
2.12358007,0.411510064,0.018645526,-0.166064029,,2.538789846,2.683182298,-0.162031649,-0.308954565,-0.007333518
2.125909446,0.274213966,0.013252961,-0.113070591,,2.539610228,1.815459881,-0.381964752,-1.12663789,0.025890457
2.125909446,0.274213966,0.013252961,-0.113070591,,2.54050425,2.212745838,-0.262257884,-0.753486867,0.006401279
2.128172114,0.137106983,0.00703701,-0.057725047,,2.542040903,2.355715445,-0.226452635,-0.618838532,0.000800161
2.130434783,0,0,0,,2.542605215,0.916304794,-0.740759894,-1.972824705,0.075980352
2.130434783,0,0,0,,2.543229739,0.717323487,-0.834097752,-2.160884122,0.08741777
2.130434783,0,0,0,,2.543527246,1.021889065,-0.693135075,-1.872938117,0.070064814
2.133112951,2.29305939,0.014755573,-0.628467521,,2.543845328,1.620632386,-0.450050395,-1.309050888,0.036719767
2.133878017,2.027902136,0.022974657,-0.594517205,,2.543956734,2.376406096,-0.221569138,-0.59920517,0.000175855
2.136072346,2.868311418,-0.005907195,-0.663762165,,2.544041985,2.474233378,-0.200079018,-0.506938025,-0.00293464
2.136072346,2.868311418,-0.005907195,-0.663762165,,2.544174649,2.736834228,-0.154188472,-0.257449397,-0.007442622
2.136072346,2.868311418,-0.005907195,-0.663762165,,2.544297948,0.611846047,-0.885543346,-2.260492515,0.093640033
2.136072346,2.868311418,-0.005907195,-0.663762165,,2.544645896,1.157781859,-0.633855999,-1.744526144,0.062500675
2.136072346,2.868311418,-0.005907195,-0.663762165,,2.544770315,0.370990828,-1.008686726,-2.488051591,0.108168895
2.136101025,2.825247095,-0.004427096,-0.662980995,,2.544901316,0.476204566,-0.953888707,-2.388653314,0.101760558
2.136101025,2.825247095,-0.004427096,-0.662980995,,2.544904105,1.648791453,-0.439761835,-1.282467238,0.035238741
2.136129704,2.782182773,-0.002909266,-0.661892663,,2.545461457,1.263279129,-0.589425378,-1.644963443,0.056651494
2.136129704,2.782182773,-0.002909266,-0.661892663,,2.546524002,0.172921489,-1.116223715,-2.674358246,0.12071259
2.136158382,2.73911845,-0.001361909,-0.660498162,,2.548081311,0.067724848,-1.175917951,-2.772790368,0.127604937
2.136158382,2.73911845,-0.001361909,-0.660498162,,2.550133677,1.462021008,-0.509453394,-1.457266207,0.045864606
2.136187061,2.696054127,0.000207255,-0.658798667,,2.552829004,1.97278479,-0.3305653,-0.977518761,0.018511279
2.136187061,2.696054127,0.000207255,-0.658798667,,2.553135847,0.833733503,-0.778311547,-2.049284395,0.081256608
2.136187061,2.696054127,0.000207255,-0.658798667,,2.553278557,0.79913839,-0.794535825,-2.081972787,0.083244598
2.136187061,2.696054127,0.000207255,-0.658798667,,2.553774867,1.566764325,-0.469394693,-1.358349883,0.040289351
2.136187061,2.696054127,0.000207255,-0.658798667,,2.555696605,2.78009143,-0.148634571,-0.215596151,-0.007001876
2.136187061,2.696054127,0.000207255,-0.658798667,,2.555818562,0.289067108,-1.051776155,-2.563614687,0.113891856
2.138338002,1.817470292,0.028197267,-0.559874509,,2.556152141,0.254651441,-1.070449308,-2.595986394,0.116080767
2.139004718,2.934155709,-0.008120425,-0.664274083,,2.557005648,1.345172454,-0.555306699,-1.56621636,0.052764066
2.141632095,2.638131832,0.00232464,-0.655882113,,2.557850961,1.379763433,-0.541382319,-1.533552714,0.050891684
2.141632095,2.638131832,0.00232464,-0.655882113,,2.558741257,1.698849667,-0.421115426,-1.233722097,0.033355091
2.14193709,3,-0.010208437,-0.664061861,,2.560214141,2.753079762,-0.151968579,-0.241425168,-0.006820764
2.147077129,2.580209537,0.004474329,-0.652420147,,2.561119392,2.484033246,-0.197566479,-0.49658161,-0.002247054
2.147077129,2.580209537,0.004474329,-0.652420147,,2.562024744,2.849195246,-0.141338067,-0.148702635,-0.006204882
2.147406265,2.227771724,0.017064716,-0.620735855,,2.562814332,1.7992738,-0.386175362,-1.139036941,0.028191088
2.147406265,2.227771724,0.017064716,-0.620735855,,2.565132462,2.94093719,-0.134893073,-0.058752273,-0.003485462
2.149408402,1.313383401,0.034437754,-0.450428742,,2.566126304,2.294403811,-0.240311049,-0.67451635,0.004567445
2.151155953,1.456775916,0.033751608,-0.485189319,,2.570702802,2.602745988,-0.17478876,-0.383971303,-0.004554657
2.151642544,1.171760811,0.034368053,-0.413151752,,2.574065395,2.987408492,-0.133517627,-0.012579895,-0.000883229
2.151642544,1.171760811,0.034368053,-0.413151752,,2.574071298,2.129430322,-0.283415439,-0.828439993,0.012212036
2.151846184,1.032689459,0.033435616,-0.373842259,,2.574399162,2.659395028,-0.165312076,-0.33016925,-0.005322293
2.151846184,1.032689459,0.033435616,-0.373842259,,2.574835164,2.154234355,-0.276505926,-0.805125307,0.011117531
2.152522163,2.522287242,0.006639967,-0.648416424,,2.576385312,1.983651505,-0.32603213,-0.964703979,0.019444496
2.152522163,2.522287242,0.006639967,-0.648416424,,2.577314229,2.41523151,-0.211686362,-0.560152811,0.000831942
2.154293333,0.893186833,0.031706307,-0.331678407,,2.577788717,1.877280232,-0.359537369,-1.06413436,0.02500774
2.156677716,0.754666337,0.029141184,-0.287173905,,2.579370655,2.838348416,-0.142551088,-0.158966959,-0.005810296
2.156885198,1.601938355,0.032302399,-0.517271076,,2.579530294,2.560720779,-0.182140737,-0.423147113,-0.003165905
2.156885198,1.601938355,0.032302399,-0.517271076,,2.580475854,1.909261527,-0.349097235,-1.033869787,0.023512596
2.157967198,2.464364946,0.008806418,-0.643874853,,2.58175049,2.079930658,-0.297114903,-0.873981081,0.015041633
2.157967198,2.464364946,0.008806418,-0.643874853,,2.582549365,0.850207246,-0.768958458,-2.029172678,0.081929648
2.157967198,2.464364946,0.008806418,-0.643874853,,2.58260007,0.781425385,-0.801219891,-2.094175416,0.085859814
2.157967198,2.464364946,0.008806418,-0.643874853,,2.582677678,0.951776341,-0.722364026,-1.933210331,0.076193501
2.157967198,2.464364946,0.008806418,-0.643874853,,2.582878031,0.679995169,-0.849852358,-2.190037667,0.091737824
2.157967198,2.464364946,0.008806418,-0.643874853,,2.584091672,0.407159828,-0.987257929,-2.447758796,0.108136716
2.157972641,1.958482378,0.025190568,-0.583243955,,2.584172789,2.539166357,-0.186064214,-0.443160987,-0.002375633
2.157972641,1.958482378,0.025190568,-0.583243955,,2.584715049,0.305962857,-1.040848346,-2.543155993,0.114484641
2.158999335,0.61712797,0.025746933,-0.240414958,,2.58492778,1.225117184,-0.603121581,-1.675144599,0.061073828
2.158999335,0.61712797,0.025746933,-0.240414958,,2.58518244,0.237395134,-1.078040102,-2.607685205,0.118875951
2.16068357,0.479985413,0.021506477,-0.191276949,,2.585333546,2.196278591,-0.264667059,-0.764703704,0.009895834
2.16068357,0.479985413,0.021506477,-0.191276949,,2.585533908,2.280722055,-0.242921455,-0.685609581,0.006326334
2.162461924,2.150268088,0.019723219,-0.61075365,,2.585938498,0.136224789,-1.134299917,-2.702679807,0.125489682
2.162461924,2.150268088,0.019723219,-0.61075365,,2.586470555,1.326550698,-0.561206839,-1.579485505,0.055547058
2.163012946,0.342689315,0.016418161,-0.139592635,,2.58792591,1.395068337,-0.533627366,-1.514878282,0.051847365
2.163697361,2.901233563,-0.007373787,-0.663334963,,2.588082293,2.691785545,-0.160198087,-0.298875305,-0.005039356
2.163697361,2.901233563,-0.007373787,-0.663334963,,2.590678397,1.495854324,-0.494172113,-1.419860904,0.046458364
2.165308969,0.205487774,0.010479664,-0.085498094,,2.59247929,2.501640961,-0.193133051,-0.477884658,-0.000886632
2.166629733,2.967077854,-0.009602456,-0.663471718,,2.594391636,2.425031378,-0.208984451,-0.549624666,0.001561019
2.166907261,1.738727467,0.030278901,-0.544567798,,2.596394123,2.926469063,-0.136803218,-0.072919221,-0.003627522
2.166907261,1.738727467,0.030278901,-0.544567798,,2.597960464,2.346236338,-0.226618641,-0.623141763,0.004559832
2.167571637,0.068380791,0.003696865,-0.029040248,,2.600234766,2.370798414,-0.220853222,-0.599948187,0.003801935
2.167571637,0.068380791,0.003696865,-0.029040248,,2.600668015,1.76153669,-0.397001726,-1.169583884,0.032615009
2.172260512,2.399077281,0.011274108,-0.637882524,,2.601593672,2.70547049,-0.158088975,-0.285365246,-0.00449326
2.172260512,2.399077281,0.011274108,-0.637882524,,2.605334538,1.858065575,-0.364358964,-1.078709652,0.027790712
2.178741892,2.857047407,-0.006013303,-0.662322677,,2.60843978,1.922161513,-0.343550019,-1.018420216,0.024657294
2.178741892,2.857047407,-0.006013303,-0.662322677,,2.61170543,0.798026402,-0.791716413,-2.073861863,0.086505637
2.178770571,2.813983085,-0.004446346,-0.661468741,,2.611797434,0.83221315,-0.775679879,-2.041545003,0.08456465
2.17879925,2.770918762,-0.002845297,-0.660306949,,2.612937913,2.014802142,-0.314757094,-0.931346534,0.020259305
2.178827928,2.727854439,-0.001218504,-0.658838574,,2.613740034,2.915622233,-0.13775573,-0.083505871,-0.003595125
2.178827928,2.727854439,-0.001218504,-0.658838574,,2.613801953,0.288551806,-1.048378673,-2.554912602,0.117256018
2.186541899,1.879739554,0.027613827,-0.5695505,,2.613887086,2.785852748,-0.147902586,-0.20862833,-0.00455845
2.186553827,2.333789615,0.013737704,-0.631215065,,2.613935766,0.25439975,-1.066894369,-2.587072628,0.119457731
2.186553827,2.333789615,0.013737704,-0.631215065,,2.6160667,1.342512626,-0.553113754,-1.560087433,0.05645202
2.186556548,2.080848331,0.022161889,-0.600739563,,2.616676742,1.376439286,-0.539459556,-1.528142386,0.054625324
2.187292626,2.675062929,0.000763439,-0.656368499,,2.617692577,2.763098605,-0.150448789,-0.230138774,-0.004219387
2.187292626,2.675062929,0.000763439,-0.656368499,,2.618201365,2.456027853,-0.201640754,-0.518697204,0.002080319
2.189337787,1.382256065,0.035015324,-0.466676316,,2.619024063,2.611179729,-0.172376153,-0.373311495,-0.001921803
2.189337787,1.382256065,0.035015324,-0.466676316,,2.619926437,2.830319348,-0.143526063,-0.165978841,-0.004347015
2.190593157,1.100632025,0.034776269,-0.392713033,,2.62014503,2.248829579,-0.249501579,-0.712084195,0.009895096
2.190593157,1.100632025,0.034776269,-0.392713033,,2.620507524,2.382431935,-0.21748908,-0.587293625,0.004697864
2.191322376,2.934155709,-0.008896035,-0.66268488,,2.620539365,2.985052497,-0.136360951,-0.014903504,-0.000867626
2.191322376,2.934155709,-0.008896035,-0.66268488,,2.620999423,2.32999459,-0.229564802,-0.63622505,0.006674793
2.191571929,1.240633475,0.035350226,-0.430847947,,2.621834516,0.610792507,-0.88149019,-2.249220784,0.097915591
2.191571929,1.240633475,0.035350226,-0.430847947,,2.622001864,1.019203466,-0.689935776,-1.863411934,0.074641356
2.19197921,0.962490771,0.033420814,-0.352362607,,2.622324678,0.716248772,-0.83003463,-2.149437442,0.091783357
2.19197921,0.962490771,0.033420814,-0.352362607,,2.622437884,0.475151026,-0.949723365,-2.377351665,0.106085159
2.19273766,2.617140634,0.002999797,-0.653250483,,2.622657057,0.913565218,-0.737493064,-1.962971713,0.080576364
2.194254748,3,-0.011134607,-0.662443716,,2.623120514,1.15509626,-0.630643101,-1.73520975,0.067187033
2.194426359,0.822988145,0.031210724,-0.308931847,,2.623865254,0.369916113,-1.004336324,-2.476520296,0.11267216
2.194426359,0.822988145,0.031210724,-0.308931847,,2.624804516,0.172921489,-1.111126005,-2.661982933,0.125425996
2.195067032,1.527418504,0.033974361,-0.500253227,,2.6248195,0.067724848,-1.170806225,-2.760689505,0.132492594
2.195067032,1.527418504,0.033974361,-0.500253227,,2.625513299,1.260539553,-0.586125564,-1.635659273,0.061527322
2.196747977,0.685449778,0.028168382,-0.263522193,,2.629226343,1.45657307,-0.50720995,-1.451102026,0.051012011
2.196747977,0.685449778,0.028168382,-0.263522193,,2.631309208,1.561423724,-0.467137641,-1.352588711,0.045422109
2.198182694,2.559218339,0.005258252,-0.649588276,,2.633360527,0.557214316,-0.907476389,-2.297988258,0.101727193
2.198311815,0.547982038,0.024251817,-0.215601986,,2.633489158,0.528297122,-0.922017335,-2.325304534,0.103469963
2.198311815,0.547982038,0.024251817,-0.215601986,,2.633586727,1.072306033,-0.665881142,-1.811513242,0.07236551
2.199185495,1.667881687,0.032131417,-0.529865751,,2.633825211,1.101276804,-0.653240321,-1.784188196,0.070780339
2.199185495,1.667881687,0.032131417,-0.529865751,,2.634529712,1.872874998,-0.358000329,-1.061123343,0.028944461
2.200116446,0.411164663,0.019494398,-0.165413504,,2.634947818,1.90498964,-0.347640775,-1.03110928,0.027304399
2.200116446,0.411164663,0.019494398,-0.165413504,,2.636275597,1.693509067,-0.418807059,-1.228355222,0.038587712
2.200847141,2.268501949,0.01617745,-0.623879375,,2.636480153,0.014438154,-1.200997386,-2.808647525,0.136908506
2.200847141,2.268501949,0.01617745,-0.623879375,,2.637776799,2.723586807,-0.155161554,-0.266684368,-0.002686311
2.202445823,0.273868565,0.013855174,-0.112583213,,2.640800552,2.510074702,-0.190125939,-0.466394258,0.001956563
2.202445823,0.273868565,0.013855174,-0.112583213,,2.641130867,2.972176117,-0.137419549,-0.027729996,-0.001386964
2.203627728,2.501296043,0.007522549,-0.645386119,,2.641906998,1.793825861,-0.383802958,-1.133899552,0.033597162
2.203627728,2.501296043,0.007522549,-0.645386119,,2.642035237,2.571630066,-0.178683154,-0.40882537,0.000427462
2.204708491,0.136761582,0.007351006,-0.057404966,,2.642633082,2.371698871,-0.219110948,-0.595275907,0.006565618
2.204708491,0.136761582,0.007351006,-0.057404966,,2.643684083,2.433634625,-0.205519582,-0.537450733,0.004487992
2.206366907,2.889969553,-0.007548883,-0.661901038,,2.644138231,1.613724166,-0.447100058,-1.301799611,0.043410543
2.206521739,0,0,0,,2.645197008,1.641883233,-0.436798217,-1.275327198,0.041956812
2.210651172,2.011428573,0.024534902,-0.589991416,,2.645399283,2.343823603,-0.22539352,-0.620979318,0.007790015
2.215111158,1.800996729,0.029896995,-0.554941518,,2.645805888,2.629417668,-0.168830337,-0.354567422,-0.000608226
2.215111158,1.800996729,0.029896995,-0.554941518,,2.646227371,1.978747208,-0.324011795,-0.96090231,0.024302489
2.215140456,2.203214284,0.018574972,-0.615882511,,2.646496684,2.890058116,-0.13947068,-0.108063097,-0.003126736
2.215140456,2.203214284,0.018574972,-0.615882511,,2.646677732,2.550075644,-0.182449224,-0.428608561,0.001273688
2.215140456,2.203214284,0.018574972,-0.615882511,,2.646842509,0.730233171,-0.821907018,-2.132189256,0.092320144
2.215140456,2.203214284,0.018574972,-0.615882511,,2.647295104,0.898407316,-0.743049699,-1.973268989,0.082808347
2.215140456,2.203214284,0.018574972,-0.615882511,,2.648367539,0.355249357,-1.010538583,-2.486328091,0.114969933
2.215140456,2.203214284,0.018574972,-0.615882511,,2.6490258,0.187245871,-1.10153956,-2.644543952,0.12592123
2.215871081,2.44513616,0.00973597,-0.640586613,,2.650216483,2.075122987,-0.295205057,-0.87064352,0.019825036
2.215871081,2.44513616,0.00973597,-0.640586613,,2.650444559,1.273985594,-0.579201064,-1.619131551,0.062300458
2.21894739,2.967077854,-0.010473866,-0.661808892,,2.653445525,1.440880292,-0.512000445,-1.462142868,0.053394069
2.21894739,2.967077854,-0.010473866,-0.661808892,,2.653799539,2.191470921,-0.262905402,-0.761925414,0.014673408
2.221411438,2.845783397,-0.006093238,-0.660786744,,2.655375967,2.275817757,-0.241280195,-0.683268901,0.011167515
2.221411438,2.845783397,-0.006093238,-0.660786744,,2.659317267,2.643102613,-0.166382706,-0.340899748,7.45258E-06
2.221440117,2.802719074,-0.004437571,-0.659859477,,2.659398959,2.987123621,-0.138291376,-0.012825282,-0.000622399
2.221468796,2.759654751,-0.002751882,-0.658623841,,2.662322255,2.424593286,-0.206817777,-0.54417175,0.006071315
2.221468796,2.759654751,-0.002751882,-0.658623841,,2.662634032,2.123211462,-0.281014321,-0.824394542,0.018405344
2.229933493,2.706863241,-0.000704796,-0.656419763,,2.663397898,2.148015495,-0.274147773,-0.801237852,0.017309161
2.230164396,2.379848494,0.012312655,-0.634374687,,2.666500487,1.806301053,-0.378302612,-1.118861372,0.034597121
2.230522542,1.169504689,0.035973004,-0.411066271,,2.668557264,1.964281932,-0.327325175,-0.971482994,0.026570401
2.230726182,1.030433337,0.034974415,-0.371867273,,2.672716013,0.626733135,-0.870632511,-2.225681246,0.099751808
2.231501314,1.309506139,0.036143175,-0.447766309,,2.672916782,2.503545781,-0.190469335,-0.469805595,0.004348088
2.231501314,1.309506139,0.036143175,-0.447766309,,2.673467184,0.457864687,-0.955466497,-2.38519063,0.109950271
2.232112236,0.892292083,0.033146349,-0.330258827,,2.673524025,1.000784146,-0.695284932,-1.872369134,0.07861779
2.232112236,0.892292083,0.033146349,-0.330258827,,2.674916701,1.16996547,-0.621463192,-1.712912039,0.069448771
2.233248866,1.452898654,0.035459556,-0.482457511,,2.675098213,0.084314842,-1.15780804,-2.736868951,0.134517432
2.233248866,1.452898654,0.035459556,-0.482457511,,2.675360735,2.924065994,-0.138488074,-0.074829438,-0.001935281
2.233991922,2.922891698,-0.00914501,-0.661254406,,2.675929969,2.287467069,-0.237587185,-0.670214968,0.012139564
2.234496619,0.753771587,0.030455321,-0.285900989,,2.680333054,2.838596745,-0.142590719,-0.156672163,-0.001523228
2.234496619,0.753771587,0.030455321,-0.285900989,,2.681783467,1.541388978,-0.471917401,-1.363752473,0.049781642
2.234745797,1.942008816,0.026822067,-0.578519339,,2.682401701,2.675371508,-0.161088312,-0.309347927,0.000954834
2.234745797,1.942008816,0.026822067,-0.578519339,,2.686407119,0.79898852,-0.787020581,-2.060568088,0.090583732
2.236060457,0.616303846,0.026891339,-0.239326585,,2.686484622,0.827786821,-0.773525044,-2.033361181,0.088965273
2.237367329,1.593361837,0.034005128,-0.513520035,,2.687662045,2.581802231,-0.175805253,-0.395883269,0.003327526
2.237744692,0.479161289,0.02245689,-0.190344966,,2.687856908,0.285341011,-1.045320559,-2.545635214,0.121699297
2.238398191,2.654071731,0.001395662,-0.653757085,,2.687966431,1.705830171,-0.411693066,-1.209376486,0.04138387
2.238398191,2.654071731,0.001395662,-0.653757085,,2.687969629,0.256571934,-1.060877681,-2.572737901,0.123596212
2.23923508,2.133794526,0.021167501,-0.60639452,,2.690749446,2.936657501,-0.138595424,-0.062535588,-0.001413667
2.23923508,2.133794526,0.021167501,-0.60639452,,2.691053144,1.341800303,-0.549318093,-1.549012653,0.061138666
2.239549323,0.342343914,0.017151307,-0.139008207,,2.691554954,2.494504442,-0.191674575,-0.476518031,0.005949363
2.239549323,0.342343914,0.017151307,-0.139008207,,2.691567032,1.37037951,-0.537804584,-1.522157841,0.05963072
2.241845345,0.205142374,0.010944698,-0.085085357,,2.692024785,2.796559799,-0.146056596,-0.195805437,-0.00034199
2.241845345,0.205142374,0.010944698,-0.085085357,,2.693173198,2.556214763,-0.180148372,-0.41916281,0.0043621
2.243658593,0.068380791,0.003867991,-0.028948503,,2.694448276,2.056773959,-0.298371596,-0.882118622,0.023823405
2.243843225,2.596149436,0.003749118,-0.650437652,,2.695830276,2.773805656,-0.14836839,-0.216908158,0.000240881
2.24445771,2.314560828,0.014872892,-0.627491849,,2.697233845,0.640717534,-0.862335089,-2.208260668,0.100271193
2.246572405,3,-0.012107007,-0.660703754,,2.697883481,0.745591591,-0.811644852,-2.109033458,0.094250752
2.246572405,3,-0.012107007,-0.660703754,,2.697969468,0.44319793,-0.961500391,-2.394856891,0.112204663
2.246572405,3,-0.012107007,-0.660703754,,2.698162072,0.985626244,-0.700707042,-1.882490377,0.080873642
2.247389392,1.730150949,0.031933591,-0.540850109,,2.698183416,2.731864203,-0.15320368,-0.255828698,0.001073208
2.249036453,2.878705542,-0.00769811,-0.660368194,,2.698247022,0.880675381,-0.748353406,-1.981428982,0.08666964
2.249288259,2.538227141,0.006113786,-0.646575961,,2.698909042,2.201622681,-0.258242649,-0.74719223,0.017436055
2.249288259,2.538227141,0.006113786,-0.646575961,,2.699024198,0.338362679,-1.016250583,-2.493696346,0.118889521
2.258751025,2.249273163,0.017397085,-0.619945564,,2.699319497,0.098639224,-1.147935604,-2.719346708,0.135021013
2.258751025,2.249273163,0.017397085,-0.619945564,,2.699552938,0.203415968,-1.089199324,-2.620828185,0.127820044
2.261531612,2.482067257,0.008420515,-0.64208921,,2.69984796,1.183411511,-0.614401597,-1.696140013,0.070226097
2.261616936,2.955813844,-0.01080201,-0.660379618,,2.701872491,1.28818834,-0.570567822,-1.59748233,0.064705363
2.261616936,2.955813844,-0.01080201,-0.660379618,,2.703233425,2.372232448,-0.216780284,-0.588623643,0.010853114
2.263315055,1.863265991,0.029309731,-0.564607267,,2.70360587,2.98915317,-0.140006734,-0.01081943,-0.000352806
2.263315055,1.863265991,0.029309731,-0.564607267,,2.703701537,2.598047764,-0.172684857,-0.379518761,0.004109945
2.263329704,2.064374768,0.023700938,-0.596170128,,2.70428298,1.42224443,-0.516554722,-1.471555753,0.057656937
2.263329704,2.064374768,0.023700938,-0.596170128,,2.705563623,2.348750823,-0.221986992,-0.610111571,0.011895408
2.264080984,2.834519386,-0.00614432,-0.659149489,,2.705627178,2.413617769,-0.207682359,-0.550053514,0.009566965
2.264080984,2.834519386,-0.00614432,-0.659149489,,2.706002649,1.525696201,-0.476541846,-1.374606125,0.05222401
2.264109663,2.791455063,-0.004398341,-0.658148388,,2.706433533,1.872125482,-0.354513144,-1.051926121,0.033940442
2.264109663,2.791455063,-0.004398341,-0.658148388,,2.706785737,1.899178279,-0.345795934,-1.026742646,0.032575206
2.269473155,1.098375903,0.03635814,-0.390623764,,2.707861178,0.558910387,-0.902168458,-2.283757201,0.105691637
2.269473155,1.098375903,0.03635814,-0.390623764,,2.708013877,0.5245825,-0.919392203,-2.316185946,0.10776612
2.270451927,1.238377353,0.036982661,-0.428640997,,2.708992784,1.067013161,-0.664070306,-1.804009763,0.077070317
2.270859208,0.960234649,0.034918195,-0.35039442,,2.70927589,1.10140465,-0.64906241,-1.771612216,0.075224684
2.271430699,1.378378803,0.036736478,-0.463899135,,2.710200841,0.017139676,-1.19417917,-2.793838762,0.141524659
2.271430699,1.378378803,0.036736478,-0.463899135,,2.71255992,1.718305363,-0.406015415,-1.194043943,0.042412274
2.271430699,1.378378803,0.036736478,-0.463899135,,2.715298756,2.5454817,-0.18148708,-0.427123511,0.0062878
2.271430699,1.378378803,0.036736478,-0.463899135,,2.716028351,1.820053897,-0.371113764,-1.098900112,0.037317847
2.271430699,1.378378803,0.036736478,-0.463899135,,2.716557405,2.303472841,-0.232106223,-0.650753422,0.014467848
2.271430699,1.378378803,0.036736478,-0.463899135,,2.716778169,2.042308683,-0.301502976,-0.892540222,0.026142854
2.272245261,0.822093395,0.032595977,-0.307543271,,2.717680432,1.946950073,-0.330205018,-0.980840617,0.030929832
2.272245261,0.822093395,0.032595977,-0.307543271,,2.718570664,1.605900905,-0.44597101,-1.297790744,0.048787506
2.272245261,0.822093395,0.032595977,-0.307543271,,2.718680298,2.949120926,-0.138744698,-0.050248704,-0.000616286
2.272245261,0.822093395,0.032595977,-0.307543271,,2.719129055,2.857499228,-0.140846615,-0.137720027,0.000418642
2.272245261,0.822093395,0.032595977,-0.307543271,,2.719463045,2.213271992,-0.25432617,-0.733856268,0.018443461
2.272245261,0.822093395,0.032595977,-0.307543271,,2.719827548,1.639328812,-0.433723651,-1.266445304,0.047097136
2.27257436,2.738663553,-0.002284831,-0.656211234,,2.720937968,2.651546373,-0.163859692,-0.328660032,0.004244623
2.273774965,2.425907373,0.010735098,-0.637098962,,2.728226365,2.467664618,-0.195828962,-0.49771767,0.0095119
2.273774965,2.425907373,0.010735098,-0.637098962,,2.728305704,2.116117819,-0.279920023,-0.822613357,0.023481968
2.273809099,0.684625654,0.029399693,-0.262323828,,2.729212497,2.145562932,-0.271796696,-0.795243596,0.022191738
2.275372938,0.547157914,0.02530613,-0.214565823,,2.72979849,2.588263431,-0.173701836,-0.386298263,0.006329357
2.275372938,0.547157914,0.02530613,-0.214565823,,2.734517766,2.870090735,-0.139750871,-0.125380989,0.001120085
2.275549163,1.518841986,0.035699605,-0.496392436,,2.735884556,2.561284835,-0.178159439,-0.410593805,0.007465306
2.276661468,2.911627688,-0.009368591,-0.659722526,,2.736839966,0.676388929,-0.842660733,-2.167589399,0.100366038
2.276661468,2.911627688,-0.009368591,-0.659722526,,2.736966538,0.575511405,-0.892155504,-2.262932161,0.106287019
2.277177568,0.410340539,0.020335679,-0.164542727,,2.737100782,0.507171448,-0.926420515,-2.327525297,0.110409953
2.278982199,0.273523165,0.014461117,-0.112072351,,2.73737041,0.406353877,-0.978102993,-2.422778835,0.116679963
2.278982199,0.273523165,0.014461117,-0.112072351,,2.737571208,0.948102506,-0.715433459,-1.910992697,0.08520256
2.278982199,0.273523165,0.014461117,-0.112072351,,2.738240854,1.049019065,-0.670388324,-1.815860215,0.079774776
2.278982199,0.273523165,0.014461117,-0.112072351,,2.738433941,0.134916028,-1.124656797,-2.678531632,0.13485403
2.278982199,0.273523165,0.014461117,-0.112072351,,2.738872035,1.117366578,-0.640560361,-1.75149165,0.076142528
2.278982199,0.273523165,0.014461117,-0.112072351,,2.738954167,0.034144291,-1.182174505,-2.772975391,0.142132762
2.279667626,1.659305169,0.033829031,-0.526037872,,2.740065225,1.218167416,-0.597589219,-1.656660292,0.070834279
2.279667626,1.659305169,0.033829031,-0.526037872,,2.741352072,2.724621301,-0.153329068,-0.259729833,0.004447283
2.280795448,0.136761582,0.007682758,-0.05721678,,2.742921571,2.643304228,-0.164635384,-0.334417737,0.0061343
2.281039058,2.685872043,-0.000111236,-0.653812948,,2.744913791,1.487813831,-0.488913742,-1.403603361,0.056836732
2.282161511,2.189679588,0.019768968,-0.612150344,,2.747321495,1.587271854,-0.451306131,-1.31049744,0.051741148
2.282161511,2.189679588,0.019768968,-0.612150344,,2.749022722,1.654138236,-0.426840111,-1.247988627,0.04833566
2.282608696,0,0,0,,2.749928703,2.806706661,-0.144096008,-0.183592615,0.003589943
2.287424328,1.994955011,0.026153882,-0.585219974,,2.750211914,2.246114183,-0.24469336,-0.699566899,0.019374859
2.287424328,1.994955011,0.026153882,-0.585219974,,2.751635933,1.752026274,-0.392274334,-1.156601241,0.043394796
2.28806828,2.360619707,0.013417193,-0.630669329,,2.752516668,2.897659555,-0.138346299,-0.099008566,0.001553328
2.289503756,2.633080533,0.002106115,-0.650957088,,2.753612357,2.159391945,-0.266962919,-0.779163699,0.023412049
2.289503756,2.633080533,0.002106115,-0.650957088,,2.754446238,2.779694993,-0.146718202,-0.208207419,0.004468272
2.291705999,2.867441532,-0.007818509,-0.658731323,,2.754813741,2.098945947,-0.283470087,-0.83482863,0.026279104
2.291705999,2.867441532,-0.007818509,-0.658731323,,2.754959002,2.007270919,-0.309991581,-0.919558178,0.030679326
2.29494879,2.575158238,0.004573906,-0.647436967,,2.755519522,2.497276714,-0.189267015,-0.467505982,0.010763139
2.29494879,2.575158238,0.004573906,-0.647436967,,2.763335675,2.716379156,-0.154003842,-0.265613733,0.006388547
2.295593289,1.792420211,0.031532899,-0.551124716,,2.763676687,2.98915317,-0.140711915,-0.010810286,1.68558E-06
2.296709699,3,-0.01308237,-0.658914272,,2.765119787,2.949120926,-0.138179365,-0.049886331,0.000833064
2.302361594,2.295332042,0.016069913,-0.623573853,,2.766023691,0.523899541,-0.916223026,-2.306508547,0.110967492
2.302361594,2.295332042,0.016069913,-0.623573853,,2.766042147,0.55791161,-0.899183667,-2.274341736,0.10892011
2.306256135,2.12025983,0.022454396,-0.602483918,,2.767517116,1.065254142,-0.661693401,-1.795380999,0.080649741
2.30675053,2.823255375,-0.00616384,-0.657405757,,2.767865191,1.099210165,-0.646873756,-1.763407713,0.078864114
2.30675053,2.823255375,-0.00616384,-0.657405757,,2.767883761,0.017004616,-1.189997389,-2.783948418,0.145255682
2.30675053,2.823255375,-0.00616384,-0.657405757,,2.768196794,2.821654165,-0.142418184,-0.16889487,0.00473773
2.30675053,2.823255375,-0.00616384,-0.657405757,,2.768331481,2.41633542,-0.204980705,-0.540472095,0.01433001
2.30675053,2.823255375,-0.00616384,-0.657405757,,2.772860629,2.51058899,-0.186277546,-0.453348426,0.011789667
2.30675053,2.823255375,-0.00616384,-0.657405757,,2.775625053,0.743789624,-0.808092236,-2.096889916,0.09865607
2.307192143,2.518998354,0.006976219,-0.64326289,,2.775988594,0.878873414,-0.744896982,-1.969329417,0.091184946
2.30940254,1.167248567,0.037590244,-0.408851742,,2.776081738,0.337822903,-1.011535853,-2.480577557,0.123221802
2.30960618,1.028177215,0.036522505,-0.369781459,,2.776537908,0.638879349,-0.858605313,-2.195864887,0.104713425
2.310381312,1.307250017,0.037794584,-0.445429222,,2.776575751,0.442647306,-0.95688351,-2.38141895,0.116543722
2.310381312,1.307250017,0.037794584,-0.445429222,,2.776610478,0.202876192,-1.084215666,-2.607802555,0.132347417
2.310992234,0.890035961,0.034591212,-0.328307111,,2.776807034,1.602867862,-0.444011988,-1.291060174,0.052968168
2.310992234,0.890035961,0.034591212,-0.328307111,,2.777251377,1.636306337,-0.431795896,-1.259899246,0.051253182
2.311518952,1.925535253,0.028506241,-0.573554735,,2.777466135,0.98378806,-0.697227875,-1.870212323,0.085593818
2.311518952,1.925535253,0.028506241,-0.573554735,,2.77792578,0.0980886,-1.142626838,-2.706142436,0.139882156
2.311518952,1.925535253,0.028506241,-0.573554735,,2.779261709,2.306190492,-0.228989911,-0.640386889,0.01922215
2.311518952,1.925535253,0.028506241,-0.573554735,,2.779416897,1.179797978,-0.611690666,-1.685682215,0.07531252
2.311518952,1.925535253,0.028506241,-0.573554735,,2.779873718,1.284646003,-0.567878851,-1.587375861,0.069836106
2.311518952,1.925535253,0.028506241,-0.573554735,,2.780272072,2.145511487,-0.26949226,-0.788210355,0.026101091
2.311557741,0.752947463,0.031764699,-0.28458527,,2.780543191,2.769910661,-0.147228941,-0.215320082,0.006883473
2.311557741,0.752947463,0.031764699,-0.28458527,,2.781890621,2.870090735,-0.138497051,-0.123761859,0.004486609
2.311754231,2.955813844,-0.0116796,-0.658567483,,2.782284207,1.418702093,-0.513813907,-1.461673052,0.062975959
2.31312158,0.615479722,0.028040834,-0.238178723,,2.782380249,2.114510603,-0.277860093,-0.816482132,0.02767909
2.313730997,1.444322136,0.037192491,-0.478498727,,2.783427613,2.216044264,-0.250857967,-0.722778765,0.023247618
2.313730997,1.444322136,0.037192491,-0.478498727,,2.784343248,2.375747808,-0.213079508,-0.575779086,0.017031813
2.314805814,0.478337165,0.023410914,-0.189368658,,2.785519882,2.636710192,-0.164746881,-0.336457198,0.009811953
2.315215228,2.770463865,-0.003982422,-0.655736569,,2.785571586,1.522082668,-0.473701932,-1.364731072,0.057796695
2.315215228,2.770463865,-0.003982422,-0.655736569,,2.786673446,2.352266183,-0.218168814,-0.59704681,0.018071275
2.316610445,0.34151979,0.017872279,-0.138206434,,2.786968083,0.796657624,-0.782480808,-2.044877164,0.096330661
2.316610445,0.34151979,0.017872279,-0.138206434,,2.787045585,0.825455925,-0.769012275,-2.017683211,0.09474217
2.31784946,1.584785319,0.035734578,-0.509576893,,2.787533056,0.284642796,-1.039089438,-2.528710427,0.127383805
2.317932302,0.205142374,0.011426455,-0.084795391,,2.787645777,0.255873718,-1.054571486,-2.555838294,0.129335181
2.317932302,0.205142374,0.011426455,-0.084795391,,2.787695454,2.594970755,-0.17125109,-0.374389941,0.010899599
2.319435496,2.46283847,0.009391214,-0.638583541,,2.788816209,1.714734915,-0.40327679,-1.185134241,0.04800563
2.31974555,0.068380791,0.00404053,-0.028851018,,2.79005935,2.811087666,-0.142887489,-0.177106663,0.006894128
2.323679925,2.717672355,-0.001733718,-0.653603423,,2.790782197,1.816553796,-0.368424535,-1.090448723,0.042917409
2.323679925,2.717672355,-0.001733718,-0.653603423,,2.791949978,1.337218187,-0.54581484,-1.536049321,0.067870313
2.32577208,2.235738467,0.018553403,-0.616164648,,2.792434278,1.943449972,-0.327555579,-0.972821029,0.036654589
2.326798762,2.911627688,-0.010145701,-0.657884572,,2.792463866,1.365797395,-0.534287439,-1.509257818,0.066414141
2.327871523,1.721574431,0.03362111,-0.536918692,,2.792822247,2.572244471,-0.17488382,-0.394616472,0.011861567
2.330350759,2.050840072,0.025067374,-0.592088628,,2.793034457,2.038738235,-0.298871349,-0.884761212,0.032062214
2.331678849,2.406678586,0.011803655,-0.633404301,,2.797888211,2.78635583,-0.145138386,-0.199033384,0.008113901
2.331678849,2.406678586,0.011803655,-0.633404301,,2.798193118,2.936657501,-0.136519182,-0.061319706,0.002799429
2.332144623,2.664880845,0.000564594,-0.651010225,,2.800307244,2.861189707,-0.138333475,-0.130962481,0.006375023
2.332144623,2.664880845,0.000564594,-0.651010225,,2.800939889,0.45673875,-0.948139369,-2.363607314,0.11698863
2.34060932,2.612089335,0.002896238,-0.647961256,,2.801030677,0.6240536,-0.864427893,-2.20534742,0.106912728
2.34060932,2.612089335,0.002896238,-0.647961256,,2.801301597,2.693202888,-0.156364915,-0.283369336,0.01013174
2.34060932,2.612089335,0.002896238,-0.647961256,,2.802127931,0.997464196,-0.689803416,-1.852794579,0.086316026
2.34060932,2.612089335,0.002896238,-0.647961256,,2.802295548,0.083650446,-1.14903954,-2.715310583,0.142429533
2.34060932,2.612089335,0.002896238,-0.647961256,,2.803129786,1.867598,-0.351047777,-1.041193257,0.041253655
2.34060932,2.612089335,0.002896238,-0.647961256,,2.803481991,1.894650797,-0.342342794,-1.016131988,0.039923247
2.341843293,2.867441532,-0.00849368,-0.656864692,,2.80384021,1.164503343,-0.616909955,-1.695568784,0.077633515
2.341843293,2.867441532,-0.00849368,-0.656864692,,2.805885276,2.204351616,-0.252883229,-0.730305861,0.02554346
2.343797186,1.854689473,0.030918281,-0.560679047,,2.807396645,2.430880918,-0.200698387,-0.522224108,0.017067732
2.343797186,1.854689473,0.030918281,-0.560679047,,2.808721001,2.987123621,-0.139242307,-0.012657212,0.000703312
2.345972163,2.341390921,0.014586772,-0.626759838,,2.809568058,2.530108329,-0.18174477,-0.431181721,0.014351929
2.345972163,2.341390921,0.014586772,-0.626759838,,2.810409673,1.535220464,-0.467443687,-1.348140628,0.058836499
2.346846994,3,-0.014100191,-0.656997277,,2.812595519,1.699713644,-0.407321254,-1.195012232,0.050507798
2.348353153,1.096119781,0.037948635,-0.388411931,,2.816255987,2.051849621,-0.293969584,-0.869048097,0.033257374
2.348353153,1.096119781,0.037948635,-0.388411931,,2.816609741,2.927756473,-0.135360214,-0.069447639,0.004483971
2.349182566,2.176144892,0.021014059,-0.608205065,,2.82100436,2.293754701,-0.230279473,-0.646008562,0.02311312
2.349182566,2.176144892,0.021014059,-0.608205065,,2.824208463,2.725673798,-0.151755845,-0.251613433,0.011690866
2.349331925,1.236121231,0.038626753,-0.426292263,,2.824737753,2.444193195,-0.197479294,-0.507756302,0.018122102
2.349331925,1.236121231,0.038626753,-0.426292263,,2.82664997,0.354000516,-0.999704779,-2.455950397,0.124947397
2.349739206,0.957978527,0.036421349,-0.348322122,,2.826707535,0.72606409,-0.813660313,-2.104080698,0.102480007
2.349739206,0.957978527,0.036421349,-0.348322122,,2.82716013,0.894238235,-0.735079383,-1.945286127,0.093284062
2.349810418,0.820518243,0.033967912,-0.305855447,,2.82730823,0.18599703,-1.089933006,-2.614433835,0.136461944
2.349810418,0.820518243,0.033967912,-0.305855447,,2.830583557,2.976557122,-0.137067822,-0.023290443,0.001708378
2.350321347,1.374013907,0.038408836,-0.460913587,,2.83091033,1.265789945,-0.573001662,-1.595678323,0.074105857
2.350321347,1.374013907,0.038408836,-0.460913587,,2.833911296,1.432684644,-0.505651487,-1.439331183,0.065741133
2.350870222,0.68380153,0.030635211,-0.261056783,,2.838819595,2.739526913,-0.149745098,-0.237555509,0.012891728
2.350870222,0.68380153,0.030635211,-0.261056783,,2.838903266,2.855907625,-0.137487659,-0.133107709,0.010451334
2.35243406,0.54633379,0.026363364,-0.213476899,,2.839453029,1.798203123,-0.372088613,-1.099175695,0.047495107
2.35243406,0.54633379,0.026363364,-0.213476899,,2.840249324,0.525488084,-0.910929172,-2.291161072,0.114888055
2.352852673,2.555929451,0.005396663,-0.644099734,,2.84026487,0.554139239,-0.896622005,-2.264050348,0.113165758
2.352852673,2.555929451,0.005396663,-0.644099734,,2.841509806,1.956184002,-0.321223889,-0.953036119,0.03982841
2.354238691,0.409516415,0.021178637,-0.163634322,,2.841632232,0.014324382,-1.185896165,-2.773133559,0.150159123
2.354238691,0.409516415,0.021178637,-0.163634322,,2.842065772,2.818111182,-0.140943345,-0.16666703,0.011743209
2.354445383,1.981420315,0.027586606,-0.580975642,,2.842180169,1.065491112,-0.657662007,-1.781275758,0.085143073
2.354445383,1.981420315,0.027586606,-0.580975642,,2.842473381,1.094095055,-0.645180991,-1.754360468,0.083679186
2.355468216,0.273060995,0.015063142,-0.11149186,,2.843462024,2.282062053,-0.232162309,-0.653390645,0.025450195
2.355468216,0.273060995,0.015063142,-0.11149186,,2.844253186,2.380437237,-0.209969786,-0.563293377,0.021893051
2.356031294,1.510265468,0.037445645,-0.492346291,,2.844872609,2.989433501,-0.136558802,-0.010274152,0.00111207
2.356031294,1.510265468,0.037445645,-0.492346291,,2.845193321,2.645821707,-0.162247901,-0.321565165,0.015008897
2.356882404,0.136761582,0.008016644,-0.05701667,,2.847019387,2.352561968,-0.21591288,-0.588362726,0.023109327
2.356882404,0.136761582,0.008016644,-0.05701667,,2.848660664,2.797277529,-0.142965834,-0.184715009,0.012912195
2.358695652,0,0,0,,2.849673174,2.478779132,-0.190042099,-0.472799577,0.0192735
2.360149757,1.650728651,0.035554258,-0.522002398,,2.850609615,2.144990151,-0.266490345,-0.777914779,0.031773398
2.360149757,1.650728651,0.035554258,-0.522002398,,2.851014108,0.368091961,-0.990738651,-2.438010398,0.125353281
2.361891525,2.955813844,-0.012592413,-0.656625126,,2.851050236,1.602417312,-0.440349208,-1.278380338,0.058277863
2.363546332,2.808209732,-0.006133836,-0.654908821,,2.851200305,0.71123834,-0.81936558,-2.113380364,0.104662543
2.363546332,2.808209732,-0.006133836,-0.654908821,,2.851424542,1.630585281,-0.430048455,-1.252187972,0.05687342
2.365096027,2.499769567,0.007914777,-0.639731058,,2.851506385,2.907368996,-0.133123224,-0.086428038,0.009072174
2.365096027,2.499769567,0.007914777,-0.639731058,,2.851654933,0.472452419,-0.93698121,-2.339155616,0.118750109
2.369382649,2.281797346,0.017182942,-0.619735279,,2.851677999,0.171558876,-1.096141915,-2.623482335,0.138902692
2.372011029,2.755418222,-0.003798646,-0.653092111,,2.851727858,0.60684599,-0.869903031,-2.211981865,0.11066923
2.37327719,2.106725134,0.023788219,-0.598363986,,2.851821926,0.907914371,-0.727520595,-1.927656143,0.093975782
2.37607542,1.783843693,0.033202073,-0.547077226,,2.852385505,2.118875564,-0.273479799,-0.801597381,0.033080619
2.37607542,1.783843693,0.033202073,-0.547077226,,2.852744875,0.06719118,-1.154610651,-2.721480742,0.146746286
2.376936056,2.911627688,-0.010951239,-0.655913425,,2.853251953,1.012252967,-0.68053919,-1.829171604,0.088576851
2.376936056,2.911627688,-0.010951239,-0.655913425,,2.85462732,1.146425084,-0.62200077,-1.702934286,0.081738361
2.37733938,2.443609683,0.010434409,-0.634861049,,2.855333643,1.25049531,-0.578089553,-1.605353068,0.076470741
2.37733938,2.443609683,0.010434409,-0.634861049,,2.855553764,2.191267644,-0.254121907,-0.734677703,0.030179026
2.380475727,2.702626712,-0.001406266,-0.650811979,,2.858749383,1.44582244,-0.499252329,-1.422459696,0.066778777
2.385275433,2.59366691,0.003656055,-0.645172576,,2.86142146,1.549439109,-0.45948405,-1.325628312,0.061713017
2.385275433,2.59366691,0.003656055,-0.645172576,,2.861573611,0.286816204,-1.032913931,-2.512827328,0.131353184
2.385368136,1.916844507,0.029970623,-0.569712416,,2.861676532,0.792232337,-0.780443302,-2.034838144,0.100759626
2.385368136,1.916844507,0.029970623,-0.569712416,,2.861707423,0.252664148,-1.051209066,-2.545063564,0.13371298
2.388282538,1.164992445,0.039215278,-0.406502068,,2.861768536,0.826419085,-0.764484686,-2.002555603,0.098908273
2.388282538,1.164992445,0.039215278,-0.406502068,,2.863177213,1.68156621,-0.411159732,-1.202806395,0.055157942
2.388486178,1.025921093,0.038075502,-0.367579951,,2.863232339,1.783181852,-0.375954103,-1.108831684,0.050056818
2.388486178,1.025921093,0.038075502,-0.367579951,,2.863883908,2.068772313,-0.286914515,-0.845687108,0.036295499
2.38855739,0.888460809,0.036026048,-0.326491857,,2.864731335,1.969295388,-0.316102335,-0.936986625,0.041036162
2.388940424,2.649835202,0.001025507,-0.648073351,,2.864838987,2.396240372,-0.205945021,-0.545837433,0.02315773
2.388940424,2.649835202,0.001025507,-0.648073351,,2.864884767,2.606756761,-0.167754927,-0.354490731,0.017590811
2.389122898,0.751372311,0.033067092,-0.282938037,,2.866872699,1.331122555,-0.544433291,-1.527813687,0.073139658
2.38927196,1.302885121,0.039460656,-0.442407887,,2.867482741,1.365049215,-0.530734833,-1.496047725,0.07146582
2.389582733,2.3874498,0.012940643,-0.629495493,,2.869241497,2.539219844,-0.178657011,-0.415128986,0.019462223
2.389582733,2.3874498,0.012940643,-0.629495493,,2.869837833,2.758183499,-0.147081273,-0.217418668,0.015745595
2.389582733,2.3874498,0.012940643,-0.629495493,,2.87001156,2.584030477,-0.171217106,-0.374393833,0.018533119
2.389582733,2.3874498,0.012940643,-0.629495493,,2.871224693,2.937173617,-0.130402876,-0.058682343,0.008734138
2.389582733,2.3874498,0.012940643,-0.629495493,,2.873679102,2.33868151,-0.218026168,-0.596983307,0.02592062
2.389582733,2.3874498,0.012940643,-0.629495493,,2.874894047,1.861620734,-0.349414427,-1.034351095,0.047069342
2.390182702,0.614655598,0.029192253,-0.236969111,,2.875312153,1.893735376,-0.339084556,-1.004682181,0.045530564
2.390182702,0.614655598,0.029192253,-0.236969111,,2.880983672,2.664384876,-0.159006763,-0.300313803,0.01815793
2.391866936,0.477513041,0.024365877,-0.188346497,,2.883261533,2.948020446,-0.129791459,-0.049143769,0.008774689
2.391866936,0.477513041,0.024365877,-0.188346497,,2.884603559,2.251343953,-0.237906376,-0.674972003,0.030174731
2.392621645,1.439957239,0.03887357,-0.475382783,,2.88561054,2.453487837,-0.193823255,-0.490597803,0.023241592
2.392793135,2.222203771,0.01976238,-0.612158326,,2.886901573,2.991098972,-0.13186751,-0.009468185,0.000750086
2.393096462,0.34105762,0.018604139,-0.137515876,,2.890366262,0.403921445,-0.969600579,-2.396486392,0.125151353
2.394418318,0.204680204,0.011888553,-0.084300829,,2.89049652,0.303544297,-1.022049872,-2.491428085,0.13179678
2.395832506,0.068380791,0.004214027,-0.02874764,,2.890512945,0.674246686,-0.834904963,-2.14061995,0.108897111
2.395832506,0.068380791,0.004214027,-0.02874764,,2.890637017,0.235524472,-1.058424335,-2.555685347,0.136522549
2.396984288,3,-0.015160011,-0.654944202,,2.890752141,0.774632543,-0.787118209,-2.045706073,0.103342523
2.397371814,2.037305377,0.026476064,-0.587802531,,2.890921412,0.135151344,-1.113427661,-2.650322147,0.143852655
2.397371814,2.037305377,0.026476064,-0.587802531,,2.891044799,0.842654162,-0.755386732,-1.981447565,0.099694167
2.397518786,2.537507026,0.006251671,-0.641127009,,2.891669339,0.943023875,-0.709511067,-1.886737184,0.094449575
2.398331591,1.576208801,0.037485523,-0.505433104,,2.891995793,2.385700473,-0.207249412,-0.551251156,0.025925862
2.398331591,1.576208801,0.037485523,-0.505433104,,2.892442165,2.865139227,-0.134806037,-0.12009965,0.016416923
2.398639095,2.852395888,-0.008587753,-0.654362232,,2.894435813,1.212903671,-0.59180871,-1.632880129,0.080896946
2.408353654,1.712997913,0.035336491,-0.532763041,,2.895594804,2.67823799,-0.156941707,-0.285954442,0.019417097
2.408353654,1.712997913,0.035336491,-0.532763041,,2.895865856,1.312966143,-0.550350787,-1.539099696,0.075988549
2.40976214,2.481347142,0.008854796,-0.636577919,,2.89696828,1.380645223,-0.523022196,-1.475778873,0.072687533
2.412028819,2.955813844,-0.01353943,-0.654543628,,2.898069707,2.35601688,-0.213366187,-0.577292817,0.027470575
2.412028819,2.955813844,-0.01353943,-0.654543628,,2.898791876,1.480327371,-0.483871774,-1.38267711,0.067845771
2.412993219,2.327856225,0.015650559,-0.622854085,,2.901359184,2.004951366,-0.303679182,-0.897722895,0.042317107
2.412993219,2.327856225,0.015650559,-0.622854085,,2.902323477,1.746093732,-0.386656683,-1.135844636,0.05489224
2.416203621,2.162610196,0.02230802,-0.604037399,,2.902878661,1.909300032,-0.332825874,-0.9853398,0.046969242
2.416203621,2.162610196,0.02230802,-0.604037399,,2.903122702,1.843788835,-0.35383468,-1.045598441,0.050158756
2.41764637,1.845998727,0.032445172,-0.556714335,,2.907967425,2.95824807,-0.124111352,-0.038357433,0.010710406
2.420342133,2.793164089,-0.006036573,-0.652199525,,2.908486945,2.444609216,-0.194874785,-0.495103663,0.025607306
2.420342133,2.793164089,-0.006036573,-0.652199525,,2.91092273,2.531669639,-0.178973415,-0.415874846,0.023570439
2.422005493,2.425187258,0.011449645,-0.631531472,,2.91131988,2.830052525,-0.138202422,-0.148752418,0.019307901
2.422005493,2.425187258,0.011449645,-0.631531472,,2.913729557,2.710802318,-0.152425542,-0.254289118,0.020929604
2.427233151,1.093863659,0.039543039,-0.386072215,,2.917820015,2.283984343,-0.228858343,-0.639586893,0.031825353
2.427233151,1.093863659,0.039543039,-0.386072215,,2.917914772,2.809218872,-0.140524736,-0.166158362,0.020530978
2.427233151,1.093863659,0.039543039,-0.386072215,,2.919434757,0.286261505,-1.029235256,-2.502084111,0.134552398
2.427233151,1.093863659,0.039543039,-0.386072215,,2.919441441,0.252393736,-1.047311044,-2.534107799,0.13691732
2.427233151,1.093863659,0.039543039,-0.386072215,,2.919798617,0.791054712,-0.777846602,-2.024336088,0.104072773
2.427233151,1.093863659,0.039543039,-0.386072215,,2.919999271,0.824889583,-0.762074826,-1.9923578,0.102276821
2.427304363,0.956403375,0.037910523,-0.34637072,,2.92167312,2.617560694,-0.165110922,-0.336813187,0.022940167
2.427375575,0.818943091,0.035340202,-0.304079794,,2.923376732,2.767415101,-0.145388824,-0.202501158,0.02147986
2.427375575,0.818943091,0.035340202,-0.304079794,,2.924176303,2.882548194,-0.13163045,-0.101524273,0.019898184
2.428222573,1.231756335,0.040274197,-0.423246555,,2.925214719,1.328843455,-0.542445613,-1.518413618,0.077173906
2.428294567,1.972729569,0.029015683,-0.577028766,,2.925707101,1.362595876,-0.528815724,-1.486857033,0.075547497
2.428435378,0.682226378,0.031857801,-0.259459379,,2.927759186,2.590582098,-0.169061906,-0.360143309,0.024017803
2.428806831,2.740372579,-0.003546481,-0.650233387,,2.928446715,2.193152059,-0.250599365,-0.720543204,0.036325663
2.429211995,1.36964901,0.040090992,-0.457762291,,2.928901201,0.471316243,-0.932763012,-2.324989121,0.122937883
2.429211995,1.36964901,0.040090992,-0.457762291,,2.928974125,0.605709814,-0.86596563,-2.197707691,0.114889311
2.429495182,0.545509666,0.027420436,-0.212333392,,2.929483064,0.06719118,-1.148615678,-2.706830172,0.151361509
2.429495182,0.545509666,0.027420436,-0.212333392,,2.929812911,0.366932949,-0.98617189,-2.423665408,0.129662888
2.429495182,0.545509666,0.027420436,-0.212333392,,2.929958513,0.171558876,-1.090393096,-2.608389272,0.143356781
2.429495182,0.545509666,0.027420436,-0.212333392,,2.929999108,0.710079329,-0.815527987,-2.098758881,0.109044641
2.429495182,0.545509666,0.027420436,-0.212333392,,2.930932446,1.009710489,-0.677683363,-1.81603354,0.093361797
2.429495182,0.545509666,0.027420436,-0.212333392,,2.931063682,0.905320792,-0.724548674,-1.914247309,0.098695986
2.429941546,2.575244484,0.004477176,-0.642224168,,2.931738209,1.893146442,-0.336553222,-0.994757535,0.050063273
2.429941546,2.575244484,0.004477176,-0.642224168,,2.932307813,1.143882605,-0.619176422,-1.689837558,0.086749477
2.430724707,0.409054245,0.022029858,-0.162826607,,2.932400356,1.859749888,-0.347227089,-1.025340539,0.051713018
2.431954233,0.272598825,0.015665077,-0.110886784,,2.933799135,2.522791017,-0.179963577,-0.420284592,0.025985764
2.431954233,0.272598825,0.015665077,-0.110886784,,2.934575399,1.247901731,-0.575204037,-1.592051941,0.081773044
2.433368421,0.136299412,0.008326913,-0.05661514,,2.936213143,2.893395024,-0.130077612,-0.089904096,0.021142524
2.433606537,2.631412776,0.001755958,-0.645271036,,2.936776859,2.070656729,-0.283087315,-0.830976033,0.042279989
2.433731858,2.896582044,-0.01118252,-0.653400711,,2.937511453,1.442518506,-0.496616572,-1.410092197,0.072449185
2.434782609,0,0,0,,2.938366222,2.298587346,-0.22472635,-0.622691012,0.033128571
2.434782609,0,0,0,,2.938631717,1.546200271,-0.456853179,-1.313629573,0.067458709
2.434782609,0,0,0,,2.93901814,2.634005863,-0.162446138,-0.319394301,0.024467163
2.434921942,1.505900572,0.039127214,-0.48908943,,2.939089327,1.971217677,-0.312014157,-0.921653787,0.046992247
2.436403704,2.26826265,0.018350206,-0.615658239,,2.940169596,0.524018408,-0.905625196,-2.272776903,0.120308514
2.436403704,2.26826265,0.018350206,-0.615658239,,2.940185142,0.552669562,-0.891395946,-2.245637016,0.118594631
2.437271528,2.687581068,-0.00101066,-0.647805566,,2.94038747,1.678327372,-0.408478164,-1.191014916,0.061132091
2.437271528,2.687581068,-0.00101066,-0.647805566,,2.94089529,0.014324382,-1.177896645,-2.754282913,0.156338536
2.440298245,2.093190438,0.025166078,-0.594026665,,2.941994408,1.779877918,-0.373196318,-1.097004408,0.056321585
2.440298245,2.093190438,0.025166078,-0.594026665,,2.942662124,1.062202342,-0.653991052,-1.764297858,0.091443559
2.440631888,1.642152133,0.037301576,-0.517750121,,2.942955336,1.090806285,-0.641518958,-1.737394952,0.090041817
2.440631888,1.642152133,0.037301576,-0.517750121,,2.944468911,2.991098972,-0.113614845,-0.007397135,0.004898913
2.440631888,1.642152133,0.037301576,-0.517750121,,2.944898747,2.147427697,-0.261777972,-0.75927226,0.039654704
2.440631888,1.642152133,0.037301576,-0.517750121,,2.946674637,2.12131311,-0.268680175,-0.782791101,0.040916047
2.440631888,1.642152133,0.037301576,-0.517750121,,2.948903205,2.916018301,-0.1237827,-0.069867543,0.022119013
2.440631888,1.642152133,0.037301576,-0.517750121,,2.950209756,2.687655134,-0.155050717,-0.269698355,0.025021128
2.442184899,2.5190846,0.007164152,-0.6379963,,2.950923927,1.598227782,-0.43691824,-1.262952329,0.06582814
2.447121582,3,-0.016260954,-0.652745787,,2.951298234,1.626395751,-0.42660373,-1.236818945,0.064486971
2.447121582,3,-0.016260954,-0.652745787,,2.952471527,2.95824807,-0.116303337,-0.033567766,0.017144457
2.447121582,3,-0.016260954,-0.652745787,,2.954189961,0.352374236,-0.992121359,-2.432523018,0.131919865
2.447509278,2.379961243,0.013620363,-0.626457505,,2.954222841,0.18576924,-1.080815271,-2.590145689,0.143652639
2.447509278,2.379961243,0.013620363,-0.626457505,,2.954467337,0.723913069,-0.807603895,-2.08062038,0.109619757
2.449924604,1.775152947,0.034777554,-0.543000932,,2.954915993,2.580042198,-0.170221214,-0.365295796,0.02694332
2.454428253,2.462924716,0.009848242,-0.633269155,,2.955454409,0.890356231,-0.730106764,-1.923279937,0.100873035
2.454428253,2.462924716,0.009848242,-0.633269155,,2.956979208,2.437132306,-0.194936034,-0.493734555,0.030395601
2.455434896,2.837350245,-0.008612123,-0.651638936,,2.958329655,2.392344492,-0.203766136,-0.534021819,0.031832524
2.45921732,1.908153761,0.031465073,-0.565645035,,2.959298353,1.261276493,-0.568454063,-1.574434266,0.082752247
2.45921732,1.908153761,0.031465073,-0.565645035,,2.961720518,1.427314061,-0.501388572,-1.419243376,0.074895162
2.45981419,2.208669075,0.021021588,-0.607916836,,2.96220891,2.84077106,-0.136222632,-0.132484942,0.025670968
2.45981419,2.208669075,0.021021588,-0.607916836,,2.962688654,2.760885399,-0.146010255,-0.202789133,0.025944887
2.466051335,1.024345941,0.039610508,-0.365483301,,2.963400091,1.957610184,-0.315017431,-0.929403855,0.049635139
2.466051335,1.024345941,0.039610508,-0.365483301,,2.963446211,2.367339567,-0.208784029,-0.555753332,0.033093561
2.466122547,0.886885657,0.037459849,-0.324577914,,2.966166158,2.626348647,-0.163177629,-0.32193715,0.027407725
2.466688055,0.749797159,0.034367005,-0.281210531,,2.966657376,1.793323221,-0.36748435,-1.079687886,0.057624545
2.467173186,1.160627549,0.040831973,-0.403443615,,2.970037772,2.816039225,-0.139464435,-0.153192581,0.026720697
2.467173186,1.160627549,0.040831973,-0.403443615,,2.973078757,2.681204833,-0.155696763,-0.271917871,0.027596518
2.467747859,0.613080446,0.030324832,-0.235430702,,2.9745324,2.208711452,-0.244836159,-0.697770194,0.039775966
2.467747859,0.613080446,0.030324832,-0.235430702,,2.975977945,2.599363578,-0.166958494,-0.344438967,0.028806951
2.468162608,1.298520224,0.041131636,-0.439228287,,2.976497963,2.853647439,-0.134229855,-0.119298493,0.027146224
2.468352953,0.477050871,0.025326106,-0.187414025,,2.976547531,2.497573018,-0.183352657,-0.435728672,0.03078103
2.468352953,0.477050871,0.025326106,-0.187414025,,2.979658965,0.454110062,-0.938295899,-2.330865702,0.126672818
2.468824621,2.9407682,-0.013923176,-0.652015668,,2.979749753,0.621424912,-0.855392397,-2.172295392,0.116688722
2.468824621,2.9407682,-0.013923176,-0.652015668,,2.97983912,0.083650446,-1.135304006,-2.681361337,0.152992203
2.469582478,0.34059545,0.019335036,-0.136793105,,2.980979366,2.319842055,-0.2184513,-0.595542162,0.036293123
2.470904335,0.204218034,0.01234948,-0.083788389,,2.981611712,2.893395024,-0.129694851,-0.08500316,0.027609627
2.470919764,2.320367668,0.016430579,-0.6197024,,2.981851642,0.991581848,-0.683186504,-1.822386639,0.097314277
2.471220998,2.02861463,0.027862323,-0.583740261,,2.983563921,1.158620994,-0.61038366,-1.665278045,0.089282248
2.471512292,1.435592343,0.040563754,-0.472086609,,2.984903111,2.056209456,-0.285051092,-0.834857182,0.047024582
2.472318523,0.067918621,0.004360067,-0.02844602,,2.985557656,2.754435098,-0.146676483,-0.205111991,0.028655909
2.472318523,0.067918621,0.004360067,-0.02844602,,2.986227439,2.948020446,-0.112606226,-0.038284466,0.026132041
2.474607659,2.556822059,0.005358743,-0.639112059,,2.987971585,2.989433501,-0.084610975,-0.008529239,0.015338489
2.474607659,2.556822059,0.005358743,-0.639112059,,2.989045434,1.527727,-0.461380593,-1.320317831,0.072044422
2.477137935,2.778118445,-0.005866514,-0.649263263,,2.99123128,1.69222018,-0.401112384,-1.167782801,0.064372977
2.477137935,2.778118445,-0.005866514,-0.649263263,,2.993369361,0.283073086,-1.025773043,-2.490120554,0.138729669
2.477222239,1.571843904,0.039159079,-0.502024259,,2.993374992,0.254543487,-1.040905003,-2.517137741,0.140753459
2.477222239,1.571843904,0.039159079,-0.502024259,,2.994088021,0.79202357,-0.773450653,-2.007865956,0.108151294
2.47827265,2.612990351,0.002551281,-0.642301231,,2.994257048,0.820525456,-0.760199746,-1.98091239,0.106675128
2.479932038,2.417698701,0.012075835,-0.628417356,,2.995078607,2.223314454,-0.240438614,-0.680467609,0.041063998
2.481937641,2.669158643,-0.000312936,-0.644981267,,2.99718579,2.808382008,-0.140380721,-0.15609004,0.030071397
2.482202838,1.704307167,0.036946817,-0.528586398,,2.998148368,2.848390021,-0.135097178,-0.12150198,0.030484585
2.482202838,1.704307167,0.036946817,-0.528586398,,2.999708883,1.328600236,-0.538950323,-1.50304604,0.082249352
2.483224676,2.1490755,0.023647779,-0.599638733,,2.999849624,2.888966269,-0.129530455,-0.08636516,0.030674521
2.483224676,2.1490755,0.023647779,-0.599638733,,3.000123657,1.357032667,-0.527458813,-1.476476493,0.080933923
2.483224676,2.1490755,0.023647779,-0.599638733,,3.003603462,2.532181774,-0.176945548,-0.399690098,0.032812487
2.483224676,2.1490755,0.023647779,-0.599638733,,3.004036014,0.439551349,-0.94413075,-2.339551033,0.128853084
2.483224676,2.1490755,0.023647779,-0.599638733,,3.004103448,0.09786081,-1.12540823,-2.663050008,0.153235571
2.483224676,2.1490755,0.023647779,-0.599638733,,3.004217981,0.635258652,-0.847306991,-2.153988453,0.117200087
2.485602632,2.725326935,-0.00322198,-0.647146723,,3.004465351,2.943591692,-0.113959735,-0.041460284,0.029553326
2.485602632,2.725326935,-0.00322198,-0.647146723,,3.004711348,0.335631091,-0.997434531,-2.437952878,0.135694778
2.486851012,2.500662175,0.008132743,-0.634704381,,3.004737759,0.201807701,-1.068351405,-2.564704761,0.145216884
2.486851012,2.500662175,0.008132743,-0.634704381,,3.005285725,0.739136417,-0.797656567,-2.055442035,0.111563845
2.490527659,2.881536401,-0.011341592,-0.650658623,,3.006078578,0.872829816,-0.735527885,-1.929001445,0.104661906
2.490527659,2.881536401,-0.011341592,-0.650658623,,3.006242369,0.976617287,-0.688649467,-1.83119844,0.099501117
2.491495554,1.837307981,0.033996987,-0.552530773,,3.006699499,1.889831375,-0.334095328,-0.982741746,0.056342471
2.49433025,2.260774093,0.019221134,-0.612398635,,3.007257279,1.861698719,-0.343071313,-1.008446152,0.057685816
2.495169381,3,-0.017353564,-0.650493485,,3.008286875,1.171995756,-0.603518262,-1.647415281,0.09022413
2.502143751,1.964038823,0.030475014,-0.572841642,,3.009213874,2.042601963,-0.287867771,-0.842337259,0.049710632
2.50486952,0.954828223,0.039397121,-0.34430921,,3.00962199,2.984176083,-0.082019465,-0.014381208,0.026619459
2.50486952,0.954828223,0.039397121,-0.34430921,,3.010403429,1.275640481,-0.560085019,-1.550102042,0.08547029
2.504940732,0.817367939,0.036708447,-0.302213321,,3.011007334,2.827856426,-0.137903367,-0.137189135,0.031945525
2.504940732,0.817367939,0.036708447,-0.302213321,,3.012349003,1.409008091,-0.506182754,-1.425479599,0.07933959
2.5050418,1.091200851,0.041110556,-0.383512528,,3.0132545,1.512522555,-0.466003533,-1.32921569,0.074541021
2.5050418,1.091200851,0.041110556,-0.383512528,,3.014402185,0.520246269,-0.903033361,-2.260814571,0.124413853
2.505435824,2.372472686,0.014330187,-0.623229122,,3.01442064,0.554258337,-0.886222792,-2.228559314,0.122393093
2.505435824,2.372472686,0.014330187,-0.623229122,,3.014628574,0.017004616,-1.17014517,-2.737080736,0.160560965
2.506000535,0.680651226,0.033075291,-0.257789569,,3.014652865,2.151570658,-0.257820191,-0.74179811,0.045628595
2.506000535,0.680651226,0.033075291,-0.257789569,,3.015393345,1.941122886,-0.317688174,-0.933891377,0.054731047
2.506373743,0.544465067,0.028463144,-0.211058215,,3.015894248,1.705665484,-0.39522027,-1.150144901,0.065659012
2.506373743,0.544465067,0.028463144,-0.211058215,,3.016761042,2.120569773,-0.265942202,-0.769612951,0.04707422
2.507113221,1.227391438,0.041921622,-0.420050783,,3.017291823,1.057079028,-0.652584546,-1.753161388,0.096263402
2.507113221,1.227391438,0.041921622,-0.420050783,,3.017639898,1.091035051,-0.637789136,-1.721219786,0.094661642
2.507210724,0.408592075,0.022878798,-0.161978555,,3.018009719,1.809161428,-0.359778772,-1.054427781,0.060994851
2.507210724,0.408592075,0.022878798,-0.161978555,,3.021000865,2.680545979,-0.155464808,-0.264359713,0.033008136
2.508102643,1.365284114,0.041777334,-0.454438617,,3.021345671,2.548457756,-0.174016511,-0.38176426,0.034382068
2.508102643,1.365284114,0.041777334,-0.454438617,,3.024822521,2.261650161,-0.230173793,-0.6396277,0.042385248
2.508440249,0.272136655,0.016264998,-0.110256511,,3.025069739,1.592453667,-0.435507169,-1.252661856,0.071671223
2.508440249,0.272136655,0.016264998,-0.110256511,,3.025408214,2.446338041,-0.191421287,-0.472577694,0.036868842
2.509854437,0.135837242,0.008635228,-0.056202391,,3.025514082,1.625892142,-0.42324667,-1.221665373,0.070141181
2.509854437,0.135837242,0.008635228,-0.056202391,,3.029143475,2.640570007,-0.160598841,-0.298259414,0.034184628
2.510869565,0,0,0,,3.03064804,2.737158762,-0.148696112,-0.212953206,0.034193562
2.512230698,2.822304601,-0.008559763,-0.648678726,,3.034451523,2.895244406,-0.126789521,-0.078009804,0.035894508
2.512230698,2.822304601,-0.008559763,-0.648678726,,3.037408747,2.617838271,-0.163608924,-0.316850635,0.035281816
2.512354798,2.45543616,0.010416689,-0.630073198,,3.038019845,2.937474175,-0.117115057,-0.046387926,0.039512511
2.51381259,1.501535675,0.040817071,-0.485637103,,3.03904347,2.168906027,-0.252375137,-0.720908386,0.047133187
2.51381259,1.501535675,0.040817071,-0.485637103,,3.042717524,2.867532319,-0.133139472,-0.099761699,0.037799613
2.514147429,2.084499692,0.026501522,-0.589837433,,3.043246287,0.40302589,-0.960176362,-2.36583201,0.133202002
2.514147429,2.084499692,0.026501522,-0.589837433,,3.043299411,0.133847536,-1.102374797,-2.620964642,0.152536371
2.51687242,2.9407682,-0.014848959,-0.649711408,,3.043340421,0.502963476,-0.909872075,-2.270960724,0.126942761
2.51750824,1.636856856,0.038934338,-0.514062005,,3.043432998,0.033873879,-1.158078091,-2.715299178,0.160802015
2.51750824,1.636856856,0.038934338,-0.514062005,,3.043467117,0.570680507,-0.876466262,-2.206689096,0.122936341
2.517740736,2.201180518,0.021974113,-0.604555507,,3.043746905,0.670599546,-0.828126082,-2.11191735,0.117326025
2.517740736,2.201180518,0.021974113,-0.604555507,,3.045341685,0.93951643,-0.70334968,-1.857495748,0.103607554
2.519273772,2.538399633,0.006299278,-0.63583278,,3.04562059,2.104416183,-0.269114723,-0.778223757,0.050289979
2.519273772,2.538399633,0.006299278,-0.63583278,,3.046246295,1.039314449,-0.658983216,-1.763415646,0.098873106
2.519273772,2.538399633,0.006299278,-0.63583278,,3.046844545,2.404252375,-0.198875623,-0.50608961,0.040061254
2.519273772,2.538399633,0.006299278,-0.63583278,,3.046988761,1.106912363,-0.629538451,-1.699807967,0.095737913
2.519273772,2.538399633,0.006299278,-0.63583278,,3.048275429,1.206619414,-0.587031399,-1.606169733,0.091188897
2.522938763,2.594567925,0.003410344,-0.639159712,,3.049408371,2.329047791,-0.214219772,-0.573433336,0.042462427
2.522938763,2.594567925,0.003410344,-0.639159712,,3.05081102,2.006828249,-0.296418717,-0.866160625,0.054843024
2.523773788,1.766462201,0.036372476,-0.53871296,,3.050973291,2.965236267,-0.106995332,-0.029383894,0.048142688
2.523773788,1.766462201,0.036372476,-0.53871296,,3.051463442,2.771550888,-0.144989796,-0.179489142,0.037210356
2.526603754,2.650736218,0.000453597,-0.641980983,,3.051961101,2.379247451,-0.203688658,-0.527548667,0.04123836
2.526603754,2.650736218,0.000453597,-0.641980983,,3.052188844,1.474880991,-0.47861673,-1.355508563,0.079132407
2.52884631,2.312879111,0.017238762,-0.616362368,,3.053549685,2.850235188,-0.13576387,-0.11301073,0.038993902
2.530268745,2.70690451,-0.0025603,-0.644291397,,3.053808561,1.574404319,-0.44085041,-1.262983665,0.074676572
2.530268745,2.70690451,-0.0025603,-0.644291397,,3.054791736,1.641853194,-0.416107987,-1.200454979,0.071647781
2.533066503,1.899463015,0.032984848,-0.561343192,,3.056073712,1.741395068,-0.380947743,-1.108429082,0.06717561
2.533066503,1.899463015,0.032984848,-0.561343192,,3.059770663,2.573918542,-0.169644111,-0.35136806,0.038189828
2.533933736,2.763072802,-0.005619174,-0.646084862,,3.063106462,2.787955787,-0.143208728,-0.163611879,0.03916782
2.533933736,2.763072802,-0.005619174,-0.646084862,,3.064882935,2.232705211,-0.235602499,-0.657352684,0.047122648
2.533933736,2.763072802,-0.005619174,-0.646084862,,3.066806163,2.465907856,-0.186959067,-0.446412419,0.040633185
2.533933736,2.763072802,-0.005619174,-0.646084862,,3.07131454,2.15645862,-0.2543293,-0.725204684,0.050527239
2.533933736,2.763072802,-0.005619174,-0.646084862,,3.072242514,0.519554515,-0.899911302,-2.24886528,0.127413974
2.533933736,2.763072802,-0.005619174,-0.646084862,,3.072282685,0.016869264,-1.165206957,-2.725325182,0.163949885
2.533933736,2.763072802,-0.005619174,-0.646084862,,3.072350754,0.553259477,-0.883318262,-2.21684659,0.125429468
2.537858584,2.410210145,0.012732343,-0.625103584,,3.075382034,1.055398734,-0.650576144,-1.741705003,0.099888356
2.538575458,2.881536401,-0.012101514,-0.648295487,,3.075776424,1.089040625,-0.635927085,-1.71003659,0.098355737
2.54321718,3,-0.01848124,-0.648088817,,3.075783483,2.12296966,-0.262924291,-0.754678221,0.052232367
2.543687704,0.885310505,0.038887837,-0.322561995,,3.080043139,2.916462528,-0.126400719,-0.057884948,0.048818805
2.543687704,0.885310505,0.038887837,-0.322561995,,3.081653755,0.335090147,-0.992471998,-2.421987722,0.139668238
2.543859985,1.021683133,0.041132142,-0.362946929,,3.081680165,0.201266757,-1.062841641,-2.548983822,0.149331265
2.544253212,0.748222007,0.035660056,-0.279400328,,3.082524849,0.438999533,-0.939445401,-2.323090994,0.1328788
2.544253212,0.748222007,0.035660056,-0.279400328,,3.082586962,0.737368098,-0.794408126,-2.040002046,0.115819434
2.544626419,0.612035847,0.031457917,-0.234019313,,3.082592283,0.097308994,-1.119301227,-2.647221749,0.157644949
2.544777558,2.493173618,0.008639057,-0.631420529,,3.083072858,0.633454792,-0.843775289,-2.138358149,0.121421518
2.544777558,2.493173618,0.008639057,-0.631420529,,3.083223602,1.590070795,-0.43370909,-1.24181194,0.076186602
2.544981835,1.15796474,0.042431417,-0.40072913,,3.083379815,0.871061498,-0.732485851,-1.913436541,0.109118866
2.545070181,2.019923884,0.029278872,-0.579421689,,3.083762434,1.624081195,-0.421225994,-1.210275756,0.074688832
2.545070181,2.019923884,0.029278872,-0.579421689,,3.084548372,2.482183838,-0.18380159,-0.427950038,0.04216559
2.545231514,0.476006271,0.026262905,-0.186218433,,3.085097246,0.974813427,-0.685657687,-1.815243317,0.10423751
2.546068495,0.34013328,0.02006256,-0.136037315,,3.085261792,2.814108992,-0.141169256,-0.13746553,0.043296343
2.546068495,0.34013328,0.02006256,-0.136037315,,3.085608141,2.697324545,-0.153613089,-0.237195741,0.041013599
2.547053256,1.294155328,0.042801634,-0.435884797,,3.087330577,1.168911211,-0.601163583,-1.632525781,0.095435093
2.547053256,1.294155328,0.042801634,-0.435884797,,3.08788977,1.272616709,-0.557768159,-1.535481777,0.090801496
2.547390352,0.203755864,0.01280768,-0.083257723,,3.0886428,2.041849097,-0.28471794,-0.825710442,0.056646837
2.547390352,0.203755864,0.01280768,-0.083257723,,3.089835344,1.405984319,-0.503821992,-1.410853683,0.084959655
2.54840548,0.067918621,0.004532785,-0.028331143,,3.092067503,2.222219739,-0.237165002,-0.660775379,0.050008955
2.55040294,1.431227446,0.042257086,-0.468603155,,3.092298201,1.509438009,-0.463544375,-1.314307381,0.080499302
2.55040294,1.431227446,0.042257086,-0.468603155,,3.092896581,0.282373359,-1.01908807,-2.469590463,0.143919926
2.551109638,2.14430863,0.024690753,-0.596079688,,3.092902211,0.253843761,-1.034068657,-2.496674679,0.14598335
2.551109638,2.14430863,0.024690753,-0.596079688,,3.09325732,1.940384854,-0.314477098,-0.917374099,0.06134107
2.552256796,2.253285536,0.020117922,-0.608953515,,3.094079397,0.789736199,-0.769365613,-1.987826953,0.113750196
2.552256796,2.253285536,0.020117922,-0.608953515,,3.094248424,0.818238085,-0.756171834,-1.960839556,0.112329225
2.55409859,1.566548627,0.040812215,-0.498279697,,3.095323174,1.704912618,-0.391838141,-1.133067531,0.071945138
2.559079189,1.699011889,0.038559418,-0.52474217,,3.095873694,1.808423395,-0.356483798,-1.037743101,0.067358773
2.560278497,2.822304601,-0.00915945,-0.646252442,,3.09668544,2.319885986,-0.214761452,-0.571269522,0.047280726
2.560278497,2.822304601,-0.00915945,-0.646252442,,3.099939697,1.3246889,-0.535936079,-1.484127658,0.089291394
2.56336237,2.364984129,0.015068565,-0.619801457,,3.100354471,1.353121331,-0.524432268,-1.457557473,0.088055582
2.56336237,2.364984129,0.015068565,-0.619801457,,3.101691593,2.894978572,-0.133413789,-0.070856514,0.052540576
2.564920219,2.9407682,-0.015797419,-0.647248916,,3.105331633,2.938057097,-0.128198943,-0.039327805,0.061732126
2.565344737,1.828617235,0.035568479,-0.548120311,,3.106871452,0.452975525,-0.930901126,-2.304379996,0.133212393
2.565344737,1.828617235,0.035568479,-0.548120311,,3.10689474,0.082984611,-1.125179377,-2.655574465,0.160167905
2.567184959,2.546761802,0.005893569,-0.634019226,,3.107403915,0.61877963,-0.84948852,-2.146762332,0.123482559
2.567184959,2.546761802,0.005893569,-0.634019226,,3.107418793,1.888876709,-0.329891146,-0.96124656,0.06476929
2.570281344,2.447947603,0.011015664,-0.626667797,,3.107976574,1.860744052,-0.338843521,-0.986902634,0.066043406
2.570281344,2.447947603,0.011015664,-0.626667797,,3.108631346,2.522683565,-0.176840139,-0.386280387,0.044117864
2.57084995,2.602930095,0.002886196,-0.637238681,,3.109640667,0.988362539,-0.678490629,-1.796795383,0.105046099
2.574514941,2.659098387,-0.000195466,-0.639953859,,3.111580786,1.15385638,-0.606469975,-1.640955214,0.097656677
2.575992934,1.955348077,0.031959532,-0.568404422,,3.112023167,2.415300694,-0.195188118,-0.481686468,0.046314732
2.575992934,1.955348077,0.031959532,-0.568404422,,3.112523754,2.87768144,-0.135760247,-0.081129224,0.053004934
2.578179932,2.715266679,-0.003341498,-0.642159709,,3.112714846,2.662273565,-0.157859756,-0.261900538,0.044164427
2.578179932,2.715266679,-0.003341498,-0.642159709,,3.114051478,2.057478212,-0.279273483,-0.805545126,0.058237396
2.58203239,2.079732822,0.027633024,-0.586184393,,3.117076902,1.522635166,-0.457424565,-1.296261027,0.081744688
2.582505888,0.815792787,0.03806786,-0.300253339,,3.118097081,2.385617101,-0.200718504,-0.506972491,0.04760575
2.582505888,0.815792787,0.03806786,-0.300253339,,3.119727569,1.689941805,-0.396012544,-1.141115472,0.074536758
2.582505888,0.815792787,0.03806786,-0.300253339,,3.120980119,2.639541829,-0.160595014,-0.279882911,0.045053936
2.582505888,0.815792787,0.03806786,-0.300253339,,3.122555915,2.720024181,-0.151691887,-0.209507104,0.046291121
2.582505888,0.815792787,0.03806786,-0.300253339,,3.123870008,2.309400514,-0.216219003,-0.574375838,0.050200326
2.582505888,0.815792787,0.03806786,-0.300253339,,3.124377938,2.590697108,-0.16683811,-0.322166882,0.045375681
2.582678169,0.952165415,0.040862411,-0.341807195,,3.130853408,2.835327115,-0.141356645,-0.110715159,0.052815959
2.58285045,1.088538043,0.042670774,-0.380820459,,3.132206015,0.351122693,-0.980785534,-2.395523924,0.14108325
2.58285045,1.088538043,0.042670774,-0.380820459,,3.132238895,0.184517697,-1.067904103,-2.553849799,0.153223537
2.582879096,0.679606627,0.034289007,-0.256232928,,3.133085118,2.434622074,-0.191227165,-0.459306224,0.048058246
2.583252303,0.543420468,0.029498074,-0.209726322,,3.13331359,0.719821838,-0.800022593,-2.044939347,0.119405553
2.583252303,0.543420468,0.029498074,-0.209726322,,3.134198935,2.73642908,-0.150390888,-0.192627586,0.048392167
2.584089285,0.407547476,0.023699877,-0.160870793,,3.134300662,0.886265001,-0.723119869,-1.887238033,0.111237655
2.58492187,1.22472863,0.043544766,-0.417170979,,3.138572868,1.254280612,-0.563105666,-1.540611429,0.094988249
2.584926266,0.271674485,0.016860823,-0.109600514,,3.140221892,2.774274776,-0.147245373,-0.158896469,0.050695164
2.584926266,0.271674485,0.016860823,-0.109600514,,3.140995034,1.420318179,-0.495914654,-1.385401668,0.087962168
2.584926266,0.271674485,0.016860823,-0.109600514,,3.143548312,1.955902652,-0.3076249,-0.891245558,0.064964526
2.584926266,0.271674485,0.016860823,-0.109600514,,3.144744149,2.916615004,-0.138111638,-0.04258312,0.066469728
2.584926266,0.271674485,0.016860823,-0.109600514,,3.146023103,0.014210364,-1.160085226,-2.712134688,0.168368265
2.584926266,0.271674485,0.016860823,-0.109600514,,3.146213468,0.521167293,-0.894723365,-2.230575625,0.131004931
2.585625698,2.196413648,0.022948357,-0.600860517,,3.146304648,0.549559746,-0.880830737,-2.203557723,0.129350986
2.585941394,0.135837242,0.008967436,-0.05596603,,3.146805597,1.791615689,-0.359850112,-1.041050533,0.07224607
2.586623257,2.881536401,-0.012874493,-0.645767813,,3.149569188,1.055740369,-0.647058565,-1.723944724,0.104368564
2.586623257,2.881536401,-0.012874493,-0.645767813,,3.149901416,1.084079692,-0.634732197,-1.697244295,0.103136234
2.586772856,2.305390555,0.018073095,-0.612826082,,3.150368151,2.373169693,-0.20238504,-0.510342635,0.051097849
2.586772856,2.305390555,0.018073095,-0.612826082,,3.150454158,2.499299629,-0.180017559,-0.397071595,0.048869004
2.586956522,0,0,0,,3.152336798,2.212466104,-0.237444939,-0.655263756,0.055921796
2.586993291,1.360919217,0.04346162,-0.450936558,,3.153828998,2.162082186,-0.249832256,-0.700664087,0.057800751
2.586993291,1.360919217,0.04346162,-0.450936558,,3.156541352,0.170193315,-1.073650233,-2.56206043,0.155585264
2.586993291,1.360919217,0.04346162,-0.450936558,,3.156552618,0.365098686,-0.972016107,-2.376700587,0.141322669
2.586993291,1.360919217,0.04346162,-0.450936558,,3.157294607,0.066656357,-1.129858417,-2.6600798,0.164283419
2.586993291,1.360919217,0.04346162,-0.450936558,,3.157448559,0.468582881,-0.919989484,-2.277999685,0.134720439
2.586993291,1.360919217,0.04346162,-0.450936558,,3.157593555,2.13387169,-0.256945436,-0.725398504,0.059163115
2.590688941,1.496240398,0.042477492,-0.481848814,,3.157603115,2.896081408,-0.141398315,-0.055066573,0.065726246
2.591264979,3,-0.019641443,-0.645521315,,3.157644646,0.705146676,-0.805671114,-2.053129683,0.12142408
2.592688745,2.501535787,0.008315611,-0.629602181,,3.157876252,0.601762966,-0.854882864,-2.151237298,0.126967718
2.593827717,2.771279953,-0.006649595,-0.643197676,,3.157955288,1.589590315,-0.430581508,-1.224450121,0.081887218
2.593827717,2.771279953,-0.006649595,-0.643197676,,3.15840919,1.618240064,-0.420049589,-1.197876051,0.080683392
2.594384591,1.631561578,0.040573835,-0.510158924,,3.158844083,0.899814113,-0.715837719,-1.868591979,0.111971725
2.594384591,1.631561578,0.040573835,-0.510158924,,3.16046717,1.003071061,-0.669671959,-1.770849974,0.107361105
2.59578513,2.402721588,0.013417444,-0.621580875,,3.161724918,2.425885398,-0.192253105,-0.460033861,0.051129296
2.59578513,2.402721588,0.013417444,-0.621580875,,3.162025547,1.13600193,-0.611868541,-1.645587719,0.101619211
2.600650139,1.761166923,0.037956544,-0.534700693,,3.162823077,1.239225781,-0.568310356,-1.548781464,0.097236198
2.606915687,1.890772269,0.03452439,-0.556798379,,3.165773735,1.433515336,-0.489668463,-1.367086834,0.089162366
2.606915687,1.890772269,0.03452439,-0.556798379,,3.166836212,0.284522148,-1.012661721,-2.451044993,0.147420333
2.606915687,1.890772269,0.03452439,-0.556798379,,3.166842896,0.250654379,-1.030291473,-2.483267733,0.149899193
2.606915687,1.890772269,0.03452439,-0.556798379,,3.168353858,0.785368841,-0.767692313,-1.974536116,0.117945647
2.606915687,1.890772269,0.03452439,-0.556798379,,3.168417952,1.536784711,-0.449839407,-1.270699388,0.08494524
2.606915687,1.890772269,0.03452439,-0.556798379,,3.168554512,0.819203712,-0.752087776,-1.942454995,0.116313558
2.612955143,2.015157014,0.030487138,-0.575684564,,3.168588471,2.837046614,-0.144964928,-0.099428265,0.060031139
2.612968018,2.9407682,-0.016765235,-0.644616803,,3.16895699,1.971531767,-0.301886191,-0.870671416,0.066489769
2.612968018,2.9407682,-0.016765235,-0.644616803,,3.169995152,2.080139522,-0.270811834,-0.771240483,0.062279062
2.615096146,2.555123972,0.005454319,-0.632030314,,3.170547066,1.671171688,-0.400449496,-1.146037058,0.079342548
2.615096146,2.555123972,0.005454319,-0.632030314,,3.170822829,2.587277105,-0.167332398,-0.313589741,0.05072125
2.618192531,2.456309772,0.01077184,-0.624846842,,3.171209992,1.776644877,-0.363832967,-1.048781779,0.074869371
2.618761137,2.611292264,0.002325809,-0.6351384,,3.172934037,2.394116611,-0.197867231,-0.485735767,0.052868805
2.618994599,2.139541759,0.025751037,-0.592274667,,3.173905098,2.680298631,-0.15680125,-0.230967057,0.052253587
2.618994599,2.139541759,0.025751037,-0.592274667,,3.174365147,1.319120785,-0.534969603,-1.471379429,0.094614009
2.620141758,2.248518666,0.021015719,-0.605113578,,3.174579809,2.491940011,-0.18093527,-0.397481101,0.051503741
2.620172478,2.830511753,-0.010401753,-0.643150101,,3.174857529,1.352873206,-0.521301428,-1.439815978,0.093222048
2.621131772,0.747177408,0.036944857,-0.277688981,,3.176922647,2.279863733,-0.221131653,-0.587930724,0.056105188
2.621131772,0.747177408,0.036944857,-0.277688981,,3.179525633,2.896133071,-0.145059873,-0.047731183,0.070006085
2.621288916,2.357495573,0.01583331,-0.616166086,,3.180706875,2.758073655,-0.15039184,-0.162032574,0.056005788
2.621288916,2.357495573,0.01583331,-0.616166086,,3.182102886,1.890773364,-0.326110804,-0.941290089,0.070937393
2.621288916,2.357495573,0.01583331,-0.616166086,,3.182765033,1.85737681,-0.336721013,-0.971745067,0.072389382
2.621288916,2.357495573,0.01583331,-0.616166086,,3.183716884,2.653313563,-0.159780939,-0.251921646,0.052929822
2.621288916,2.357495573,0.01583331,-0.616166086,,3.187055605,2.837090134,-0.146766184,-0.093636553,0.063208216
2.621288916,2.357495573,0.01583331,-0.616166086,,3.187726642,2.699773049,-0.155479972,-0.210285536,0.054588924
2.621496353,0.882647697,0.040286614,-0.320105289,,3.194948481,2.579917487,-0.168345507,-0.313592134,0.053434521
2.621496353,0.882647697,0.040286614,-0.320105289,,3.195675362,0.134075577,-1.089839663,-2.587585663,0.160492939
2.62150498,0.610991248,0.032580981,-0.232541615,,3.195692583,0.233649763,-1.037019579,-2.492873903,0.152571629
2.621668634,1.019020325,0.042642453,-0.36028714,,3.195738305,0.301113186,-1.002025373,-2.4286148,0.147614679
2.622110074,0.474961672,0.02719044,-0.184974187,,3.195856026,0.400647139,-0.951460876,-2.33374685,0.140846455
2.622426128,2.667460556,-0.00088373,-0.637743893,,3.196716309,0.668531519,-0.820924257,-2.078545526,0.125305147
2.622426128,2.667460556,-0.00088373,-0.637743893,,3.197237496,0.767947811,-0.774343929,-1.984058745,0.120311796
2.622790485,1.155301932,0.04402177,-0.397869284,,3.19769025,0.835287997,-0.743333829,-1.92015667,0.117110085
2.622947055,0.339088681,0.020758033,-0.135025329,,3.198505299,0.934616129,-0.698386194,-1.82607124,0.1126037
2.622947055,0.339088681,0.020758033,-0.135025329,,3.199174009,2.758117175,-0.151563449,-0.156703392,0.058746352
2.623477308,0.203755864,0.013286326,-0.082892579,,3.201639888,1.201999224,-0.582228876,-1.5739553,0.101324532
2.623477308,0.203755864,0.013286326,-0.082892579,,3.20315281,1.301249047,-0.541046906,-1.480835442,0.097306497
2.624492436,0.067918621,0.004704797,-0.028210008,,3.20427257,1.368539682,-0.513785051,-1.417849569,0.094600017
2.624861905,1.29149252,0.044440177,-0.432828714,,3.206064452,1.467888039,-0.474586512,-1.325071378,0.090610896
2.624861905,1.29149252,0.044440177,-0.432828714,,3.209649159,2.699824712,-0.156114262,-0.20387628,0.057448433
2.627279291,1.425932169,0.04391204,-0.464784032,,3.210347048,1.738200015,-0.37528157,-1.074192016,0.079634975
2.627279291,1.425932169,0.04391204,-0.464784032,,3.210711492,2.318015183,-0.212046786,-0.544461889,0.058263526
2.630974941,1.561253349,0.042466479,-0.494328948,,3.211735732,1.83960481,-0.341259451,-0.980614826,0.075516284
2.63595554,1.693716612,0.040177709,-0.520667038,,3.212265779,1.909326841,-0.319058826,-0.916525311,0.072692644
2.638073913,2.72347383,-0.004245134,-0.63915038,,3.212356684,2.644576888,-0.161237237,-0.25151011,0.056234903
2.639312778,3,-0.020830625,-0.642779344,,3.212441452,2.013696127,-0.287803909,-0.820957045,0.068540013
2.639312778,3,-0.020830625,-0.642779344,,3.217476935,2.835531253,-0.150230581,-0.084885525,0.067948359
2.639312778,3,-0.020830625,-0.642779344,,3.220366728,2.877935585,-0.151243465,-0.048033852,0.074025669
2.640599932,2.509897956,0.007959762,-0.627606633,,3.221797205,2.488161908,-0.181105135,-0.387986554,0.0564683
2.642221088,1.823321957,0.037115163,-0.54392737,,3.224512504,0.250394086,-1.026121314,-2.470264313,0.152675934
2.642221088,1.823321957,0.037115163,-0.54392737,,3.22456491,0.28398974,-1.008760612,-2.438225391,0.150199296
2.643696316,2.411083757,0.013250513,-0.619759936,,3.225435532,2.439205697,-0.188927349,-0.430940547,0.05733149
2.643696316,2.411083757,0.013250513,-0.619759936,,3.226193868,0.784239964,-0.765415912,-1.961490511,0.121024812
2.643877896,1.950581206,0.033232932,-0.564593482,,3.226445968,0.817745279,-0.750011373,-1.929667447,0.119456102
2.643877896,1.950581206,0.033232932,-0.564593482,,3.226845419,2.774478914,-0.152488025,-0.133958198,0.063739665
2.646517238,2.889743552,-0.014350482,-0.642446315,,3.227553024,2.683439874,-0.158081439,-0.21281207,0.059120832
2.649917352,2.074965951,0.028778356,-0.582290582,,3.229720588,2.335660489,-0.207987857,-0.523254845,0.059637142
2.653510659,2.191646777,0.023938958,-0.59690517,,3.231856444,2.660486199,-0.1601916,-0.23168299,0.058939483
2.653721698,2.779487104,-0.007738069,-0.640019129,,3.232349329,1.316971998,-0.533444452,-1.458707314,0.098626082
2.653721698,2.779487104,-0.007738069,-0.640019129,,3.232976707,1.350510212,-0.51984975,-1.427281493,0.097311977
2.654657817,2.300623684,0.018886261,-0.60883156,,3.234032797,0.066656357,-1.123034431,-2.642927068,0.168262072
2.654657817,2.300623684,0.018886261,-0.60883156,,3.234422905,0.467495357,-0.915809835,-2.260848158,0.138430859
2.659587713,0.814006112,0.039399399,-0.298141494,,3.234821865,0.170193315,-1.067343892,-2.544280884,0.159428233
2.659587713,0.814006112,0.039399399,-0.298141494,,3.234850599,0.600675442,-0.851176767,-2.133814078,0.130781165
2.659757656,0.678562028,0.035490209,-0.254599894,,3.234877892,2.412444243,-0.193419219,-0.452397781,0.058648131
2.659757656,0.678562028,0.035490209,-0.254599894,,3.235074035,0.363989304,-0.967303056,-2.359437666,0.145092967
2.660130864,0.542375869,0.030521335,-0.208336531,,3.236166063,0.704037294,-0.802193086,-2.035159202,0.125450272
2.660130864,0.542375869,0.030521335,-0.208336531,,3.237467284,2.220911042,-0.232726481,-0.625258249,0.063439913
2.660486819,0.949502607,0.04231257,-0.339191124,,3.237543797,2.556175451,-0.171559186,-0.322520975,0.0580069
2.660486819,0.949502607,0.04231257,-0.339191124,,3.237575244,0.897361167,-0.713362608,-1.851513552,0.116423446
2.660659099,1.085875235,0.04421769,-0.37799238,,3.237647128,1.000666445,-0.667366179,-1.753955903,0.111943136
2.660659099,1.085875235,0.04421769,-0.37799238,,3.239205504,1.133597313,-0.609647392,-1.628515108,0.106504373
2.660967845,0.406502877,0.02451061,-0.159722485,,3.241554238,1.236772836,-0.566062091,-1.531234831,0.102468838
2.660967845,0.406502877,0.02451061,-0.159722485,,3.241589311,1.855192092,-0.334992006,-0.958424896,0.077322103
2.661329863,0.27113929,0.017445556,-0.108890861,,3.242041909,2.736683225,-0.155193961,-0.161631541,0.06332473
2.661329863,0.27113929,0.017445556,-0.108890861,,3.242781506,1.891517569,-0.323392747,-0.924766688,0.075950282
2.66202835,0.135837242,0.009297512,-0.055716659,,3.245055259,1.430189092,-0.487687803,-1.349990921,0.09493724
2.66202835,0.135837242,0.009297512,-0.055716659,,3.245286161,0.014210364,-1.15080629,-2.690137154,0.173703798
2.66273052,1.222065822,0.045156915,-0.414132253,,3.245782002,0.519760549,-0.889574279,-2.20824868,0.135843204
2.66273052,1.222065822,0.045156915,-0.414132253,,3.245873182,0.548153002,-0.875812338,-2.181156169,0.134217183
2.663007332,2.563486141,0.004979748,-0.629856327,,3.246137429,1.533524002,-0.447830726,-1.253825139,0.090840429
2.663007332,2.563486141,0.004979748,-0.629856327,,3.248266544,1.667910979,-0.39835142,-1.129016981,0.08552115
2.663043478,0,0,0,,3.249403686,1.052629928,-0.644130668,-1.702000129,0.110445952
2.664332567,1.357406942,0.045100953,-0.447507332,,3.249735914,1.080969251,-0.631827534,-1.675251047,0.109296965
2.664332567,1.357406942,0.045100953,-0.447507332,,3.250491516,1.773318633,-0.361640181,-1.031292551,0.081380731
2.666103717,2.464671941,0.010496492,-0.622847433,,3.255125639,2.08858446,-0.265375353,-0.740999826,0.069421355
2.666103717,2.464671941,0.010496492,-0.622847433,,3.255798474,1.980146436,-0.295886511,-0.839997962,0.073531842
2.666672323,2.619654433,0.001727647,-0.632848428,,3.257123803,2.722880932,-0.156713925,-0.168717982,0.064463956
2.666672323,2.619654433,0.001727647,-0.632848428,,3.258487671,1.585372494,-0.427937253,-1.202548205,0.089657335
2.667565292,1.49094512,0.04413335,-0.477863874,,3.258941574,1.614022243,-0.417379342,-1.175934163,0.088531954
2.667565292,1.49094512,0.04413335,-0.477863874,,3.259099247,0.184298431,-1.057938392,-2.525186228,0.159430922
2.671260942,1.6262663,0.04221343,-0.506033802,,3.259357047,0.349564821,-0.972925199,-2.367398809,0.147174464
2.671260942,1.6262663,0.04221343,-0.506033802,,3.259500229,2.814519606,-0.154662673,-0.087780751,0.071589402
2.672861999,2.948975352,-0.018504163,-0.641071716,,3.260558389,0.71776151,-0.794570041,-2.016027962,0.125976176
2.672861999,2.948975352,-0.018504163,-0.641071716,,3.261798543,0.882583498,-0.718946304,-1.859344741,0.118382773
2.67752649,1.755871645,0.039545057,-0.530440799,,3.261867279,2.596563688,-0.167051877,-0.279041334,0.060998735
2.67752649,1.755871645,0.039545057,-0.530440799,,3.263947735,2.173005957,-0.24337625,-0.661476947,0.067308314
2.680066459,2.838718904,-0.011708373,-0.639743947,,3.266088349,2.362632326,-0.201969911,-0.488399675,0.062489039
2.680840105,2.010390143,0.031705443,-0.571712773,,3.26614886,1.250017567,-0.559582928,-1.512423321,0.103531096
2.680840105,2.010390143,0.031705443,-0.571712773,,3.267712292,2.144795461,-0.250281773,-0.686142145,0.068561555
2.681035141,1.887301871,0.035919334,-0.552838859,,3.269235108,1.415001391,-0.492697549,-1.357715593,0.097239875
2.681035141,1.887301871,0.035919334,-0.552838859,,3.27472507,2.850756415,-0.157447461,-0.050054813,0.077581082
2.682320109,2.675667707,-0.001665365,-0.634609138,,3.275639634,1.786449078,-0.356202622,-1.012379403,0.082853759
2.683461084,2.360190161,0.01612887,-0.6130243,,3.278293526,2.609965405,-0.165975538,-0.261777316,0.062984312
2.683461084,2.360190161,0.01612887,-0.6130243,,3.281504372,1.965144225,-0.299332269,-0.846604715,0.076260256
2.685358162,3,-0.02199365,-0.639977208,,3.284281847,2.788477014,-0.15686878,-0.101247992,0.072229966
2.686879561,2.134774889,0.02682412,-0.588213203,,3.284438312,0.082984611,-1.109638528,-2.615793616,0.169269045
2.686879561,2.134774889,0.02682412,-0.588213203,,3.284961403,0.450459399,-0.921083902,-2.264785737,0.141771324
2.688026719,2.243751796,0.0219287,-0.60099808,,3.285493866,0.616263504,-0.841035302,-2.10638492,0.132336816
2.688026719,2.243751796,0.0219287,-0.60099808,,3.287248113,2.677515586,-0.160736736,-0.198527314,0.06588523
2.688511118,2.518260126,0.007569479,-0.625424583,,3.287397534,2.504480137,-0.178479965,-0.353613667,0.0630034
2.688511118,2.518260126,0.007569479,-0.625424583,,3.288206326,0.982799153,-0.673123397,-1.757766708,0.11555003
2.697967894,2.731680981,-0.005202621,-0.635835636,,3.289027724,2.241758179,-0.226442559,-0.591535235,0.067447507
2.698213597,0.745390733,0.038196027,-0.27564885,,3.290146445,1.148292994,-0.601347117,-1.601410572,0.109032496
2.69838354,0.609946649,0.033689669,-0.230996271,,3.290873236,2.658179824,-0.162170971,-0.214492041,0.065573114
2.69838354,0.609946649,0.033689669,-0.230996271,,3.29689081,1.515091101,-0.45280225,-1.25726395,0.095277518
2.698578178,0.880861022,0.041672539,-0.317825921,,3.297589847,2.709736691,-0.159451315,-0.166141939,0.068441416
2.698988635,0.473917073,0.028105066,-0.183680484,,3.298314574,0.252563307,-1.019443839,-2.450691422,0.155875604
2.698988635,0.473917073,0.028105066,-0.183680484,,3.29835872,0.280863681,-1.004974992,-2.423628484,0.153770296
2.699350653,0.338553486,0.021465077,-0.134175809,,3.29936374,2.774674721,-0.158067988,-0.107654496,0.072803303
2.699477284,1.016357517,0.044135383,-0.357501058,,3.299541476,1.68239774,-0.391136081,-1.101695133,0.088884781
2.699477284,1.016357517,0.044135383,-0.357501058,,3.300089111,0.785292318,-0.761474701,-1.941768126,0.124729357
2.699880906,0.203220668,0.01372993,-0.082295729,,3.300301476,0.813516592,-0.748557273,-1.914906482,0.123458834
2.700579393,0.067918621,0.004875467,-0.028082534,,3.306448897,1.316571362,-0.530696532,-1.439435695,0.103584759
2.700579393,0.067918621,0.004875467,-0.028082534,,3.306977389,1.34482335,-0.5192334,-1.412918133,0.10254324
2.700599134,1.152639124,0.045596651,-0.394860252,,3.30803682,2.259403485,-0.222023927,-0.569764467,0.068644458
2.700599134,1.152639124,0.045596651,-0.394860252,,3.308715694,0.097089727,-1.099898167,-2.596658298,0.169148407
2.702201181,1.287980244,0.046056421,-0.42940647,,3.309244416,0.436034916,-0.926661408,-2.272555684,0.143737329
2.704618567,1.422419893,0.045552675,-0.461166866,,3.309552939,0.200238248,-1.045560751,-2.497991674,0.16044584
2.705868485,2.413778345,0.013430438,-0.616449457,,3.309760014,0.33298642,-0.977796736,-2.371000555,0.150545817
2.706411219,2.897950703,-0.015899775,-0.638809667,,3.309886192,0.62998772,-0.833264787,-2.087111068,0.132750512
2.706411219,2.897950703,-0.015899775,-0.638809667,,3.310291447,2.460313796,-0.184759278,-0.386254346,0.065352001
2.707851292,1.555958071,0.044114936,-0.490166182,,3.311011699,2.077016651,-0.266501977,-0.735622282,0.074597116
2.707851292,1.555958071,0.044114936,-0.490166182,,3.311133053,0.732907508,-0.785093599,-1.988726104,0.127713562
2.710918519,2.57184831,0.004467723,-0.62748729,,3.31212919,0.865298719,-0.724546685,-1.862686857,0.121783116
2.710918519,2.57184831,0.004467723,-0.62748729,,3.312429625,0.968021483,-0.678656381,-1.765347864,0.117494314
2.710918519,2.57184831,0.004467723,-0.62748729,,3.314594164,2.619038699,-0.165918679,-0.241370045,0.066919363
2.710918519,2.57184831,0.004467723,-0.62748729,,3.314647792,2.828571991,-0.160793407,-0.05316595,0.079290168
2.710918519,2.57184831,0.004467723,-0.62748729,,3.314741067,1.161537725,-0.594775177,-1.582385744,0.110016902
2.710918519,2.57184831,0.004467723,-0.62748729,,3.31700554,1.264126099,-0.55178425,-1.485593302,0.106261958
2.712831891,1.688421334,0.041794667,-0.516353679,,3.318068074,1.853323062,-0.332546418,-0.938934409,0.083586004
2.712831891,1.688421334,0.041794667,-0.516353679,,3.319027498,0.016869264,-1.142208983,-2.670641342,0.177156786
2.713615679,2.787694255,-0.008884115,-0.636524265,,3.319072357,1.883922989,-0.322766942,-0.910499389,0.082474126
2.713615679,2.787694255,-0.008884115,-0.636524265,,3.31948453,1.396647304,-0.498018175,-1.361168729,0.101420649
2.716340542,1.819851559,0.03856285,-0.539913693,,3.319733807,2.433552342,-0.18881462,-0.407494067,0.066428031
2.716829986,2.303318272,0.019288019,-0.605629836,,3.319746669,0.516057677,-0.887091367,-2.193402892,0.139404322
2.717802314,2.070199081,0.029932619,-0.578146893,,3.319854909,0.549762639,-0.870883253,-2.161162508,0.137503876
2.717802314,2.070199081,0.029932619,-0.578146893,,3.321070659,1.499903401,-0.457670406,-1.264684751,0.097601535
2.71799735,1.947110808,0.034569801,-0.560437268,,3.323547313,1.047666904,-0.643302758,-1.687180385,0.11493465
2.718907383,2.948975352,-0.019484478,-0.638140832,,3.323941704,1.081308795,-0.628720963,-1.65536534,0.113648451
2.721395621,2.186879907,0.024941058,-0.592678552,,3.324689594,1.695528186,-0.38550735,-1.08250629,0.090291235
2.721395621,2.186879907,0.024941058,-0.592678552,,3.326354523,2.529694311,-0.175301124,-0.318038952,0.066799972
2.726566304,2.627861584,0.001061536,-0.629589104,,3.326632986,2.303679635,-0.212253834,-0.523624658,0.069187846
2.726566304,2.627861584,0.001061536,-0.629589104,,3.328308975,1.799790812,-0.349657382,-0.985288005,0.086490315
2.728275886,2.467366529,0.010552277,-0.619362731,,3.330244657,2.749777383,-0.16035518,-0.117839098,0.074183045
2.731403547,3,-0.023173688,-0.636990354,,3.331688678,2.378950555,-0.197845299,-0.45335374,0.068188522
2.736669538,0.812219437,0.040711275,-0.295933903,,3.332551657,2.812187153,-0.161765569,-0.060364613,0.079364229
2.736669538,0.812219437,0.040711275,-0.295933903,,3.333019753,1.943325466,-0.303905888,-0.851831911,0.081322321
2.736839481,0.676775353,0.036652139,-0.252641361,,3.333123661,1.579586276,-0.427141766,-1.187383386,0.095418984
2.737009424,0.54133127,0.031528786,-0.206887902,,3.333662493,1.613596676,-0.414581356,-1.155726681,0.094150426
2.737009424,0.54133127,0.031528786,-0.206887902,,3.336717598,2.062014441,-0.269664726,-0.7417511,0.077267902
2.737009424,0.54133127,0.031528786,-0.206887902,,3.34278077,2.543096028,-0.173848071,-0.30023023,0.068410813
2.737009424,0.54133127,0.031528786,-0.206887902,,3.345044039,2.183612566,-0.238278374,-0.627717945,0.07395543
2.737009424,0.54133127,0.031528786,-0.206887902,,3.347847418,0.033613586,-1.130308687,-2.647909646,0.176897471
2.737009424,0.54133127,0.031528786,-0.206887902,,3.347910374,0.132819028,-1.077531532,-2.55318601,0.167768841
2.737371442,0.405967682,0.025327888,-0.158724064,,3.348326892,0.399834638,-0.941976268,-2.297407345,0.147709882
2.737568643,0.947715932,0.04374402,-0.336733534,,3.348573274,0.498934231,-0.893683357,-2.20244556,0.141646812
2.737733461,0.270604094,0.018021319,-0.108155077,,3.348811281,0.566054792,-0.861511405,-2.138170161,0.137887004
2.737733461,0.270604094,0.018021319,-0.108155077,,3.349267343,0.665051432,-0.814805706,-2.043476556,0.132784325
2.738431948,0.135302047,0.009589892,-0.055239059,,3.349512981,2.150123606,-0.246290987,-0.657038344,0.075366518
2.738467749,1.083212427,0.045744856,-0.375025252,,3.351237198,2.816948495,-0.163744849,-0.047891322,0.081405581
2.738467749,1.083212427,0.045744856,-0.375025252,,3.351271019,0.931349035,-0.693335616,-1.789662184,0.121065594
2.738467749,1.083212427,0.045744856,-0.375025252,,3.352303031,1.030124186,-0.64981989,-1.695947634,0.117233846
2.738467749,1.083212427,0.045744856,-0.375025252,,3.353138224,1.097031746,-0.62083873,-1.632605228,0.114739304
2.738467749,1.083212427,0.045744856,-0.375025252,,3.354571157,1.195724189,-0.578863299,-1.539379831,0.111161342
2.738467749,1.083212427,0.045744856,-0.375025252,,3.359557508,1.462283267,-0.470737292,-1.288812317,0.101724114
2.739130435,0,0,0,,3.359775442,2.705305849,-0.162727956,-0.146414674,0.074352178
2.739130435,0,0,0,,3.361827798,1.561556806,-0.43277267,-1.195907155,0.098189026
2.739130435,0,0,0,,3.362799173,2.770154825,-0.162819977,-0.085861607,0.078531647
2.73996044,2.846926055,-0.013076327,-0.636006222,,3.363516073,1.629183958,-0.40775363,-1.132721419,0.095761434
2.73996044,2.846926055,-0.013076327,-0.636006222,,3.3644479,2.567343384,-0.171544238,-0.270421443,0.070611905
2.740069796,1.218553546,0.046738863,-0.41072988,,3.366228471,1.729501777,-0.372040809,-1.039118956,0.092139267
2.741671842,1.353894666,0.046725063,-0.443895238,,3.367609925,2.204559484,-0.232697544,-0.601414129,0.075211343
2.741671842,1.353894666,0.046725063,-0.443895238,,3.36768697,2.671784164,-0.164208576,-0.173869365,0.073559872
2.74221409,2.683874858,-0.002499828,-0.63115781,,3.371312094,2.652448402,-0.165268582,-0.190137413,0.073176106
2.74221409,2.683874858,-0.002499828,-0.63115781,,3.372656933,2.478355209,-0.18193272,-0.348797619,0.070844466
2.744904568,1.487432844,0.045766926,-0.474046518,,3.374955618,2.276049686,-0.21679854,-0.53343004,0.073920457
2.745633252,2.362884749,0.016408102,-0.609610676,,3.37570394,2.018213799,-0.280434329,-0.770117166,0.08198986
2.745633252,2.362884749,0.016408102,-0.609610676,,3.376646007,0.016744323,-1.13656671,-2.657140018,0.179899463
2.748137293,1.620971022,0.043845816,-0.501680592,,3.376779758,2.614607857,-0.167778596,-0.222635694,0.072561506
2.748137293,1.620971022,0.043845816,-0.501680592,,3.377417426,0.515423438,-0.884101651,-2.179218315,0.141923882
2.748137293,1.620971022,0.043845816,-0.501680592,,3.377547193,0.548839037,-0.868139883,-2.147181299,0.140065751
2.748137293,1.620971022,0.043845816,-0.501680592,,3.378539537,2.774165694,-0.16403938,-0.075384009,0.080046222
2.748137293,1.620971022,0.043845816,-0.501680592,,3.380028708,2.132314334,-0.249760227,-0.663824365,0.078432473
2.748137293,1.620971022,0.043845816,-0.501680592,,3.381279478,1.046074888,-0.641787537,-1.672906946,0.118237433
2.750198888,2.246446384,0.022428405,-0.597744954,,3.381495302,2.373414789,-0.198059702,-0.441911683,0.072525288
2.750683287,2.520954714,0.007492312,-0.621759758,,3.38172028,1.079340557,-0.627387992,-1.641377506,0.117029538
2.750683287,2.520954714,0.007492312,-0.621759758,,3.383866052,2.446586422,-0.186333355,-0.373966706,0.071919223
2.751645944,1.752401247,0.041032445,-0.52638637,,3.38635306,0.199738913,-1.039623142,-2.479700538,0.163777441
2.752456604,2.897950703,-0.016706658,-0.635739362,,3.386560134,0.332487084,-0.972705616,-2.352301021,0.153799289
2.754764523,2.130008018,0.027904742,-0.583885752,,3.387059383,0.096580356,-1.093070377,-2.578344043,0.172710828
2.754764523,2.130008018,0.027904742,-0.583885752,,3.387588105,0.435525545,-0.922041769,-2.253175283,0.147078654
2.754764523,2.130008018,0.027904742,-0.583885752,,3.388019209,0.731251711,-0.782279445,-1.970025606,0.131412108
2.754764523,2.130008018,0.027904742,-0.583885752,,3.388317646,0.628298644,-0.830056059,-2.068302313,0.136356292
2.754764523,2.130008018,0.027904742,-0.583885752,,3.389015347,0.863642922,-0.722056754,-1.843662795,0.125741754
2.754764523,2.130008018,0.027904742,-0.583885752,,3.390861079,0.966332407,-0.676296308,-1.745694385,0.121767393
2.754959559,2.006919746,0.032974696,-0.567347636,,3.391151507,1.576808394,-0.425990465,-1.173206637,0.099728275
2.755154594,1.883831473,0.037312989,-0.548612484,,3.391283127,2.79809709,-0.166039569,-0.04746198,0.082716871
2.755154594,1.883831473,0.037312989,-0.548612484,,3.392156693,2.49426452,-0.179851184,-0.327245669,0.07245731
2.757861875,2.739888132,-0.00621573,-0.632190904,,3.392300949,1.610425145,-0.413527115,-1.141670704,0.098568237
2.757861875,2.739888132,-0.00621573,-0.632190904,,3.393361734,1.158314832,-0.593232831,-1.563679057,0.114838854
2.764952767,2.948975352,-0.020465233,-0.635012342,,3.39407718,1.260966706,-0.550272992,-1.467023733,0.111245377
2.768040653,2.416472933,0.013591203,-0.612853534,,3.39655617,1.393487911,-0.496447048,-1.342296475,0.106725122
2.770085545,2.5808825,0.00386003,-0.624203367,,3.397657742,0.251917402,-1.01221636,-2.426820438,0.160124768
2.770085545,2.5808825,0.00386003,-0.624203367,,3.397701888,0.280217776,-0.997980748,-2.399644896,0.157997115
2.773509661,2.795901407,-0.010087676,-0.632686236,,3.398738024,2.201864103,-0.232425319,-0.593813516,0.077807544
2.773509661,2.795901407,-0.010087676,-0.632686236,,3.399543569,0.783150497,-0.758016985,-1.917413607,0.129637894
2.773509661,2.795901407,-0.010087676,-0.632686236,,3.399691325,1.496680508,-0.455984996,-1.245178805,0.103249873
2.773509661,2.795901407,-0.010087676,-0.632686236,,3.399755934,0.811374771,-0.745188898,-1.890463085,0.128438786
2.773509661,2.795901407,-0.010087676,-0.632686236,,3.400998094,2.712629615,-0.164657169,-0.12271943,0.078041302
2.773509661,2.795901407,-0.010087676,-0.632686236,,3.401177369,2.273779146,-0.216643976,-0.526816832,0.076099317
2.775295422,0.743604058,0.03942499,-0.273522579,,3.404077761,2.76859111,-0.165599708,-0.069291622,0.081447056
2.775392232,0.473381878,0.029020855,-0.182523633,,3.405799655,1.690700428,-0.384112854,-1.06322937,0.096567937
2.775392232,0.473381878,0.029020855,-0.182523633,,3.406143283,1.312484595,-0.52872046,-1.415266592,0.11019561
2.775465365,0.608159974,0.034753748,-0.22912888,,3.406216203,2.538576132,-0.174869453,-0.281284708,0.07377758
2.775465365,0.608159974,0.034753748,-0.22912888,,3.406671775,1.340736583,-0.517240046,-1.388665725,0.109242323
2.775660003,0.879074347,0.043035859,-0.315439431,,3.407717052,2.371144249,-0.198047508,-0.434932069,0.074679294
2.77575425,0.338018291,0.022160179,-0.133292015,,3.407820963,1.795058173,-0.348184805,-0.966046295,0.092801951
2.776284503,0.202685473,0.014165143,-0.0816803,,3.411318796,0.082369992,-1.098287035,-2.586014017,0.175065217
2.776559108,1.014570842,0.045603629,-0.35485416,,3.411376691,2.146184526,-0.245310425,-0.640946255,0.0804843
2.776559108,1.014570842,0.045603629,-0.35485416,,3.411885899,0.449415756,-0.913824654,-2.233534818,0.147208807
2.77698299,0.067383426,0.005006215,-0.027730105,,3.412524261,0.613796402,-0.835627505,-2.07572932,0.138127474
2.77698299,0.067383426,0.005006215,-0.027730105,,3.41253174,1.938592827,-0.30236196,-0.832015771,0.087786786
2.777448931,3,-0.024361288,-0.633805587,,3.414994152,2.443891041,-0.186519937,-0.365300032,0.074438095
2.77793841,1.149126849,0.047133563,-0.391490515,,3.415270317,0.979768991,-0.66946213,-1.726155153,0.12253575
2.77793841,1.149126849,0.047133563,-0.391490515,,3.416738457,2.716640484,-0.165413864,-0.112243015,0.079337135
2.779002154,2.30601286,0.019672172,-0.60215866,,3.416984481,2.486263449,-0.180851637,-0.32548201,0.074429133
2.779540457,1.284467969,0.047652281,-0.425812043,,3.417438743,1.143412093,-0.598699207,-1.57086173,0.116763928
2.781957843,1.418907617,0.047175969,-0.457352068,,3.417827659,2.057186683,-0.268148859,-0.720906071,0.083936061
2.78356779,2.189574495,0.025530446,-0.589382995,,3.418140799,2.178162279,-0.237380522,-0.60922729,0.08002979
2.78356779,2.189574495,0.025530446,-0.589382995,,3.420919119,1.847201257,-0.330590793,-0.913800142,0.09183214
2.785190568,1.552445795,0.045732772,-0.486135813,,3.421923403,1.877801184,-0.320785497,-0.885204496,0.090763347
2.785190568,1.552445795,0.045732772,-0.486135813,,3.422167817,2.599714088,-0.16980314,-0.218608494,0.075825792
2.78573333,2.636895774,0.000291067,-0.626095772,,3.424393089,1.50952817,-0.450178199,-1.225892366,0.104495048
2.786005824,2.846926055,-0.013729598,-0.632793733,,3.427130684,2.531836174,-0.175706515,-0.279517061,0.075325399
2.786005824,2.846926055,-0.013729598,-0.632793733,,3.427505265,2.669192896,-0.166535361,-0.151889651,0.078088838
2.786951345,1.684950936,0.043309055,-0.512272027,,3.428612821,2.467658757,-0.183199049,-0.338331764,0.075356346
2.786951345,1.684950936,0.043309055,-0.512272027,,3.430047517,1.674898342,-0.388818167,-1.070503203,0.098924953
2.790448054,2.470061117,0.010585864,-0.615578114,,3.431808685,2.646239221,-0.16746841,-0.17146157,0.077645953
2.790448054,2.470061117,0.010585864,-0.615578114,,3.433608546,2.724119576,-0.166267082,-0.097850546,0.080773136
2.790459996,1.816381161,0.040004131,-0.535642614,,3.436786105,0.183143155,-1.04394235,-2.482999312,0.167172585
2.791921768,2.066728683,0.031124024,-0.573559753,,3.437043904,0.348409545,-0.961367901,-2.324035061,0.154689329
2.791921768,2.066728683,0.031124024,-0.573559753,,3.438444302,0.713930613,-0.787951766,-1.972867058,0.134454584
2.792116803,1.94364041,0.035903369,-0.555997025,,3.439684455,0.878752601,-0.713262325,-1.81525083,0.127608968
2.798501988,2.897950703,-0.017506997,-0.632458405,,3.443082298,2.59297413,-0.17065998,-0.216447161,0.077187096
2.798501988,2.897950703,-0.017506997,-0.632458405,,3.444234635,2.068870683,-0.264094113,-0.701481943,0.085557972
2.801381115,2.692909048,-0.003441876,-0.627452198,,3.444463913,1.242707907,-0.556093692,-1.469553741,0.114949116
2.807805421,2.365579337,0.016666177,-0.60591183,,3.445641468,2.77091792,-0.168275196,-0.048116209,0.083928901
2.807805421,2.365579337,0.016666177,-0.60591183,,3.446101055,2.747579463,-0.16737296,-0.070079915,0.082656784
2.809850312,2.529988904,0.006995783,-0.618398745,,3.446190806,2.673954238,-0.167069039,-0.139453305,0.0794685
2.810998152,2.948975352,-0.021437446,-0.631670508,,3.447550161,1.407691732,-0.489037881,-1.313971808,0.10958125
2.810998152,2.948975352,-0.021437446,-0.631670508,,3.449630987,2.293029245,-0.211630084,-0.492295335,0.079381441
2.812371056,2.249140972,0.022908991,-0.594225749,,3.450383982,0.014105116,-1.130485986,-2.641799193,0.18343305
2.812371056,2.249140972,0.022908991,-0.594225749,,3.451136842,0.517149921,-0.879135495,-2.15808115,0.144822891
2.813600147,0.540204736,0.032508689,-0.205355924,,3.451246156,0.54529862,-0.865814752,-2.131012542,0.143287173
2.813600147,0.540204736,0.032508689,-0.205355924,,3.454686679,2.368300164,-0.197803038,-0.42070971,0.078285434
2.813751362,0.810432762,0.041997764,-0.293629207,,3.454972845,1.046487432,-0.638950851,-1.65163353,0.122215823
2.813751362,0.810432762,0.041997764,-0.293629207,,3.455344169,1.074509833,-0.626844566,-1.625000889,0.121265347
2.81377504,0.405432487,0.02612984,-0.157682767,,3.456636472,2.63823815,-0.168472905,-0.168493969,0.079041167
2.81377504,0.405432487,0.02612984,-0.157682767,,3.459600741,1.775499515,-0.352813985,-0.96800908,0.097372519
2.813921306,0.674988678,0.037789752,-0.250606401,,3.459606357,2.695206534,-0.16729686,-0.113562817,0.081020302
2.813921306,0.674988678,0.037789752,-0.250606401,,3.461045518,0.168932791,-1.049124007,-2.490514848,0.169311217
2.814137058,0.270068899,0.018585613,-0.10739298,,3.461164621,2.246144157,-0.220920269,-0.531641222,0.081375583
2.814137058,0.270068899,0.018585613,-0.10739298,,3.461341699,0.362299755,-0.952933922,-2.304316275,0.154668573
2.814650468,0.945929257,0.045149791,-0.334156988,,3.461703664,0.066162671,-1.101965196,-2.589094791,0.178694055
2.814650468,0.945929257,0.045149791,-0.334156988,,3.462300219,0.464989257,-0.90332538,-2.205234909,0.148243371
2.814835545,0.134766852,0.00987507,-0.054750191,,3.462551165,2.535728356,-0.175549058,-0.261966012,0.077847395
2.814835545,0.134766852,0.00987507,-0.054750191,,3.462650917,0.699428371,-0.793518896,-1.980067062,0.136150522
2.815217391,0,0,0,,3.462812975,0.597025965,-0.840929756,-2.078207541,0.141049792
2.815489012,1.080691524,0.047231696,-0.3719801,,3.464093692,0.892189185,-0.706336238,-1.795556059,0.128261021
2.815489012,1.080691524,0.047231696,-0.3719801,,3.464915578,2.503736528,-0.178812116,-0.29088075,0.077896712
2.817028901,2.748922323,-0.007338263,-0.628270371,,3.465322157,1.574930212,-0.424024735,-1.152535565,0.105009844
2.817028901,2.748922323,-0.007338263,-0.628270371,,3.465465479,1.954194662,-0.295751877,-0.800572487,0.091216298
2.817409071,1.215041271,0.048295442,-0.407166447,,3.465767087,0.994375832,-0.661229532,-1.69792184,0.124605613
2.817409071,1.215041271,0.048295442,-0.407166447,,3.466290426,1.603248357,-0.413488831,-1.125877503,0.104081029
2.819011118,1.350382391,0.048326519,-0.440096598,,3.467220478,2.663439402,-0.167973526,-0.140211786,0.080366596
2.819011118,1.350382391,0.048326519,-0.440096598,,3.467508848,1.125820117,-0.604466128,-1.572939165,0.120188075
2.822243844,1.483920569,0.04738089,-0.470016185,,3.468540922,1.227805168,-0.561487317,-1.476452536,0.116871693
2.822243844,1.483920569,0.04738089,-0.470016185,,3.471456451,0.248788517,-1.008110857,-2.410985223,0.163214209
2.823494315,3,-0.025543237,-0.630407797,,3.471508857,0.282384171,-0.991438282,-2.378613788,0.160674687
2.823494315,3,-0.025543237,-0.630407797,,3.472251925,1.420539395,-0.483124685,-1.294480579,0.110749369
2.823494315,3,-0.025543237,-0.630407797,,3.472861608,2.420293013,-0.18941043,-0.365581383,0.078871102
2.824692311,1.61775967,0.045417825,-0.497520409,,3.473362724,2.650676989,-0.168480463,-0.149583445,0.080347956
2.824692311,1.61775967,0.045417825,-0.497520409,,3.473414456,0.778915896,-0.756806669,-1.901002639,0.133173138
2.825765397,1.748930849,0.042508176,-0.522084753,,3.473666557,0.812421211,-0.741664979,-1.868915501,0.131815961
2.825765397,1.748930849,0.042508176,-0.522084753,,3.474711082,2.48806427,-0.180567027,-0.301638206,0.078558735
2.826594206,2.805054665,-0.011335575,-0.629015085,,3.474883023,2.582992828,-0.171827692,-0.212670261,0.079087061
2.826594206,2.805054665,-0.011335575,-0.629015085,,3.475425729,1.52254762,-0.443429424,-1.198223164,0.107512896
2.827038874,2.131876442,0.028740407,-0.579836441,,3.475765778,2.725552573,-0.168209457,-0.077416018,0.0830481
2.827038874,2.131876442,0.028740407,-0.579836441,,3.477321374,2.686349026,-0.167970733,-0.114046315,0.081633777
2.829079012,2.003449348,0.03423828,-0.56268044,,3.477509169,2.226178167,-0.224772067,-0.544377199,0.083093986
2.829079012,2.003449348,0.03423828,-0.56268044,,3.479967578,1.655379153,-0.394005765,-1.073094349,0.103188277
2.82925257,2.58991669,0.003192632,-0.620593801,,3.480166324,1.306813249,-0.528538005,-1.398674069,0.114986385
2.82925257,2.58991669,0.003192632,-0.620593801,,3.480793702,1.340351463,-0.51489176,-1.367001,0.113933238
2.829274048,1.880361075,0.038698045,-0.544111104,,3.483848603,1.759697429,-0.35728713,-0.974923809,0.099701874
2.829274048,1.880361075,0.038698045,-0.544111104,,3.48433373,2.440314509,-0.186491327,-0.34246966,0.079444688
2.830212822,2.419167521,0.013727581,-0.608958012,,3.486359358,2.749387415,-0.169411878,-0.049600495,0.084526036
2.830212822,2.419167521,0.013727581,-0.608958012,,3.490927066,2.130245782,-0.246713409,-0.628722996,0.08694654
2.839090369,2.856079314,-0.015142136,-0.628949415,,3.491872456,1.965878662,-0.291336007,-0.780958839,0.092721375
2.841174323,2.308707448,0.02003362,-0.59840597,,3.493446902,2.613088902,-0.170369969,-0.176398663,0.080614636
2.841174323,2.308707448,0.02003362,-0.59840597,,3.493480795,2.716695065,-0.168739293,-0.077690762,0.083447606
2.844900355,2.645929964,-0.00054323,-0.622262003,,3.496625029,2.157183265,-0.239971141,-0.601692375,0.086493362
2.84961508,2.479095307,0.010194558,-0.612147895,,3.497253025,1.839974713,-0.330097305,-0.896022581,0.097721172
2.851586533,2.907103962,-0.019098482,-0.628446668,,3.49844522,1.876300189,-0.318428634,-0.861902651,0.096471756
2.851982955,0.472255344,0.029891393,-0.181103791,,3.499570777,2.073019775,-0.261093491,-0.678871067,0.089476418
2.852056088,0.60703344,0.035811199,-0.227424491,,3.50014635,0.133082556,-1.063918611,-2.515047611,0.17391918
2.852157848,0.337483095,0.02284025,-0.132373714,,3.50025504,0.231919253,-1.014249414,-2.419756131,0.165578511
2.852157848,0.337483095,0.02284025,-0.132373714,,3.500353009,0.298873378,-0.981207501,-2.355153168,0.160507139
2.852377246,0.741817383,0.040626175,-0.271309311,,3.50053346,0.397641703,-0.9332626,-2.259845137,0.153787129
2.852377246,0.741817383,0.040626175,-0.271309311,,3.501564841,0.663226245,-0.80838052,-2.00393074,0.139402589
2.8526881,0.202150278,0.014589985,-0.081046282,,3.502150368,0.761700141,-0.763411453,-1.909338532,0.135127617
2.8526881,0.202150278,0.014589985,-0.081046282,,3.502643003,0.828371913,-0.733353274,-1.845412311,0.132477741
2.852741827,0.877287672,0.044370424,-0.312944424,,3.503511415,0.926669719,-0.689612384,-1.751357537,0.12886197
2.852741827,0.877287672,0.044370424,-0.312944424,,3.507014872,1.191062635,-0.575602128,-1.499549086,0.120260241
2.853069947,0.067383426,0.00517082,-0.027590835,,3.507389029,2.738872579,-0.169890008,-0.049751918,0.084796866
2.853580372,1.012049939,0.047030373,-0.351872441,,3.507536795,2.623567156,-0.170166933,-0.160294377,0.081518151
2.854959673,1.146605946,0.048641979,-0.388241385,,3.5084988,2.462214717,-0.183484402,-0.312371396,0.080795449
2.85584214,2.191442918,0.026251393,-0.585078376,,3.50874838,1.28912206,-0.534858595,-1.406601071,0.117266016
2.856879733,1.280955693,0.049220236,-0.42204272,,3.510117411,1.355603051,-0.507791572,-1.34369595,0.115245052
2.856879733,1.280955693,0.049220236,-0.42204272,,3.511923459,2.555446816,-0.174171419,-0.223037948,0.080934029
2.859297119,1.415395342,0.048774108,-0.45333596,,3.512424391,1.453752263,-0.468753178,-1.250968976,0.112236487
2.859297119,1.415395342,0.048774108,-0.45333596,,3.513492031,2.341209654,-0.201366359,-0.423891346,0.082779374
2.860548141,2.701943238,-0.004451237,-0.623390088,,3.516704128,2.682571785,-0.169186375,-0.099711485,0.08325115
2.860548141,2.701943238,-0.004451237,-0.623390088,,3.520189274,2.664915076,-0.16938081,-0.115080376,0.082937158
2.861745587,1.549234443,0.047308508,-0.481975391,,3.521560069,1.720935549,-0.369287879,-0.998702597,0.103747452
2.863506363,1.681739584,0.044846887,-0.5078778,,3.525363392,2.654164248,-0.169648886,-0.123037071,0.082899539
2.864082697,2.95812861,-0.023241772,-0.627504703,,3.526037901,1.8212159,-0.335160467,-0.903894478,0.100438802
2.864082697,2.95812861,-0.023241772,-0.627504703,,3.526298133,2.199375054,-0.229285612,-0.551674983,0.087223692
2.864196119,2.068597107,0.032050588,-0.569470707,,3.528780062,2.529242923,-0.176372959,-0.240705056,0.081726886
2.86457945,1.812910763,0.041431468,-0.531107458,,3.529057076,0.248567375,-1.003759865,-2.396126848,0.165279059
2.86457945,1.812910763,0.041431468,-0.531107458,,3.529102639,0.281925845,-0.987394006,-2.363893096,0.162749081
2.866236257,1.940170012,0.037225881,-0.551264455,,3.529196637,2.706031672,-0.169739364,-0.07120293,0.08434459
2.866236257,1.940170012,0.037225881,-0.551264455,,3.529793203,1.890170381,-0.312919769,-0.838473895,0.098174912
2.867620736,3,-0.026663417,-0.626942121,,3.53098181,0.77791449,-0.754915108,-1.885540284,0.135678912
2.869017338,2.539023094,0.006438325,-0.614710388,,3.531222345,0.811080947,-0.739999302,-1.853699626,0.134386974
2.869977589,2.368273925,0.016897511,-0.60191498,,3.536398577,1.993398802,-0.28173559,-0.740107134,0.094859321
2.869977589,2.368273925,0.016897511,-0.60191498,,3.537722755,1.304628891,-0.527611886,-1.383044525,0.118486357
2.869977589,2.368273925,0.016897511,-0.60191498,,3.538441853,0.066162671,-1.094444623,-2.569729877,0.181631058
2.869977589,2.368273925,0.016897511,-0.60191498,,3.538464407,1.337571668,-0.514189287,-1.351810618,0.117518215
2.869977589,2.368273925,0.016897511,-0.60191498,,3.538575566,2.513570666,-0.177786386,-0.251419914,0.082234053
2.869977589,2.368273925,0.016897511,-0.60191498,,3.53901106,0.464041334,-0.899278591,-2.185306387,0.151089257
2.870113446,2.758075581,-0.008478695,-0.624465096,,3.539326031,0.168932791,-1.042402257,-2.470341803,0.172151309
2.879678751,2.814207924,-0.012643418,-0.625025135,,3.539523816,0.596078043,-0.837549691,-2.057831546,0.14404853
2.879678751,2.814207924,-0.012643418,-0.625025135,,3.539594315,0.361332781,-0.948169789,-2.284354278,0.15751262
2.884645407,2.251009395,0.023503443,-0.58965421,,3.540903533,0.698461397,-0.790497199,-1.95893529,0.139381125
2.888419595,2.59895088,0.002458902,-0.616640324,,3.540974288,2.632143029,-0.170435609,-0.13708542,0.083103059
2.888419595,2.59895088,0.002458902,-0.616640324,,3.541359773,2.577457342,-0.172865754,-0.189352076,0.082513894
2.889379847,2.428201711,0.0134357,-0.605467165,,3.542299154,0.88984072,-0.704505552,-1.775121907,0.131952316
2.889379847,2.428201711,0.0134357,-0.605467165,,3.542431703,0.992073638,-0.659614887,-1.677560071,0.128467268
2.89019087,0.539078202,0.033463778,-0.203764886,,3.54377072,2.308466904,-0.206541424,-0.44293235,0.08538374
2.89019087,0.539078202,0.033463778,-0.203764886,,3.544173465,1.123517924,-0.602979823,-1.552150309,0.124378604
2.890365763,0.404305953,0.026883354,-0.15638294,,3.546746384,1.225456704,-0.55999712,-1.454901602,0.121408263
2.890512029,0.673862144,0.038914267,-0.248718857,,3.548928024,2.385250658,-0.193540403,-0.36860027,0.084095332
2.890540656,0.269533704,0.019135815,-0.106604522,,3.549092285,2.719192511,-0.170623836,-0.048837497,0.085235416
2.890540656,0.269533704,0.019135815,-0.106604522,,3.54964704,0.014105116,-1.120091632,-2.617031605,0.187380585
2.890540656,0.269533704,0.019135815,-0.106604522,,3.550364525,0.515923757,-0.874263718,-2.132075136,0.14856927
2.890540656,0.269533704,0.019135815,-0.106604522,,3.550473839,0.544072455,-0.861126464,-2.104883146,0.147075316
2.890540656,0.269533704,0.019135815,-0.106604522,,3.550923273,1.415763394,-0.48247972,-1.274392708,0.115853667
2.890540656,0.269533704,0.019135815,-0.106604522,,3.552547053,1.517865718,-0.442653045,-1.178149014,0.112723964
2.890833187,0.808646087,0.043252848,-0.291226538,,3.554140735,1.043509478,-0.636944613,-1.625081574,0.127376244
2.890833187,0.808646087,0.043252848,-0.291226538,,3.554512058,1.071531879,-0.624873498,-1.598331459,0.126516104
2.890833187,0.808646087,0.043252848,-0.291226538,,3.555449666,2.587935596,-0.172375293,-0.173042145,0.083172484
2.890833187,0.808646087,0.043252848,-0.291226538,,3.55561875,1.835432068,-0.329436312,-0.88063671,0.101953689
2.890833187,0.808646087,0.043252848,-0.291226538,,3.557088902,1.650697251,-0.39300553,-1.052467385,0.108604807
2.890833187,0.808646087,0.043252848,-0.291226538,,3.557871094,2.481933177,-0.180873104,-0.273310786,0.083341482
2.890922502,0.134766852,0.010188367,-0.054463087,,3.558181857,1.868061072,-0.31884874,-0.849335239,0.100934036
2.891304348,0,0,0,,3.560115268,2.288500914,-0.209858394,-0.455348854,0.086853446
2.891671731,0.943408355,0.046507532,-0.331250434,,3.560400145,2.405272154,-0.190410801,-0.3450211,0.084386866
2.892174914,2.865232572,-0.01660974,-0.62477242,,3.562519951,1.754921428,-0.356083915,-0.953365621,0.105324802
2.892510275,1.078170622,0.048685567,-0.368794319,,3.563588347,0.182956869,-1.033347271,-2.450417133,0.1717637
2.892510275,1.078170622,0.048685567,-0.368794319,,3.563812485,0.347056485,-0.953392811,-2.29157793,0.159273784
2.894430335,1.212520369,0.049817061,-0.403701122,,3.565080811,1.568874037,-0.422911208,-1.126311871,0.111867012
2.896350394,1.346870115,0.049897425,-0.436108737,,3.56519062,0.712120073,-0.783253951,-1.938803568,0.139738281
2.896350394,1.346870115,0.049897425,-0.436108737,,3.56604908,1.597192183,-0.412311377,-1.099500361,0.110994271
2.896350394,1.346870115,0.049897425,-0.436108737,,3.566373877,0.875275122,-0.710100463,-1.781916406,0.133519535
2.896350394,1.346870115,0.049897425,-0.436108737,,3.567304151,2.435124207,-0.186277983,-0.313850407,0.084300097
2.896350394,1.346870115,0.049897425,-0.436108737,,3.571153876,1.238519379,-0.553837665,-1.43493418,0.122363954
2.896350394,1.346870115,0.049897425,-0.436108737,,3.571219931,2.685020025,-0.170459181,-0.071597661,0.084909747
2.898798862,1.480709217,0.048948129,-0.465870141,,3.574802273,1.400574082,-0.487777895,-1.280997899,0.117761517
2.899313225,2.133744865,0.029548609,-0.57544393,,3.575736695,2.549666401,-0.174777023,-0.20076046,0.083841434
2.899313225,2.133744865,0.029548609,-0.57544393,,3.576132871,1.946032525,-0.29413982,-0.770281156,0.09926219
2.90124733,1.614548318,0.046965569,-0.493118771,,3.578014724,2.604597017,-0.171766244,-0.146709068,0.084078275
2.90124733,1.614548318,0.046965569,-0.493118771,,3.582171049,2.053564657,-0.263381819,-0.667526627,0.095718505
2.901353363,2.005317771,0.035243716,-0.558565957,,3.587365035,2.531061709,-0.176132884,-0.213486879,0.084325217
2.902320416,1.745719498,0.044002105,-0.51744254,,3.587438325,1.766896872,-0.351107376,-0.933663327,0.106549558
2.903393502,1.876890677,0.040066533,-0.539327983,,3.588862368,0.082369992,-1.081251153,-2.541072678,0.181778653
2.903393502,1.876890677,0.040066533,-0.539327983,,3.589366198,0.447222617,-0.904250789,-2.187573578,0.153751826
2.903393502,1.876890677,0.040066533,-0.539327983,,3.59000456,0.611603263,-0.827975029,-2.02847836,0.145109293
2.903393502,1.876890677,0.040066533,-0.539327983,,3.590159176,2.247555464,-0.217077499,-0.482195374,0.089717191
2.903393502,1.876890677,0.040066533,-0.539327983,,3.590707036,2.668081944,-0.170673056,-0.078815688,0.085017969
2.903393502,1.876890677,0.040066533,-0.539327983,,3.592462946,2.56210524,-0.173946121,-0.181238558,0.084423375
2.904067381,2.654964154,-0.001448562,-0.61806858,,3.592643668,0.974442573,-0.665672589,-1.679181757,0.131362812
2.904067381,2.654964154,-0.001448562,-0.61806858,,3.594812095,1.138085675,-0.595280123,-1.5226568,0.126536753
2.904671078,2.916257221,-0.020732559,-0.624088992,,3.595490092,2.634591269,-0.171021152,-0.109346939,0.084762446
2.904671078,2.916257221,-0.020732559,-0.624088992,,3.595881154,2.657331117,-0.170754866,-0.086881959,0.084985138
2.908209118,2.95812861,-0.02413432,-0.623801193,,3.597772897,2.105080026,-0.249399396,-0.613415728,0.094846049
2.908782105,2.488129497,0.009741083,-0.608389968,,3.598562818,2.485935677,-0.180092903,-0.251944725,0.085087443
2.908782105,2.488129497,0.009741083,-0.608389968,,3.600046962,1.927408041,-0.298857509,-0.779142537,0.101503589
2.911747158,3,-0.027733816,-0.623233513,,3.60273076,0.250829543,-0.996937654,-2.374213271,0.1674786
2.913448674,2.310575872,0.020489018,-0.593554938,,3.602769141,0.278930118,-0.98336656,-2.34695323,0.165342062
2.913448674,2.310575872,0.020489018,-0.593554938,,3.602823092,1.498695995,-0.448433678,-1.179608491,0.116460231
2.913632686,2.711096497,-0.005495872,-0.619461852,,3.603450627,2.69201334,-0.171085921,-0.049005823,0.085519061
2.923197991,2.76722884,-0.0096867,-0.620338446,,3.60347086,2.13201751,-0.242517376,-0.585927596,0.094238995
2.928116491,2.193311342,0.026940375,-0.580410903,,3.604077521,2.356783919,-0.19684745,-0.373077918,0.087544142
2.928184363,2.548057284,0.005812874,-0.610677724,,3.604480818,0.779191275,-0.751485057,-1.862756222,0.13856731
2.928184363,2.548057284,0.005812874,-0.610677724,,3.60468344,0.807130101,-0.739002713,-1.835837542,0.137536029
2.928573678,0.47112881,0.030736806,-0.17963416,,3.608477519,1.664066166,-0.386433787,-1.022623514,0.111480023
2.928646811,0.605906906,0.036839695,-0.225651323,,3.608898405,2.179919936,-0.231054972,-0.538705396,0.092914499
2.928748571,0.336356561,0.023469225,-0.131201204,,3.61076475,2.425386926,-0.186845947,-0.304749855,0.086441909
2.928748571,0.336356561,0.023469225,-0.131201204,,3.611061156,2.590433042,-0.172460383,-0.14515269,0.08494655
2.928775057,0.202150278,0.015036602,-0.080602131,,3.611073948,1.304087593,-0.525670088,-1.360218208,0.122663976
2.928775057,0.202150278,0.015036602,-0.080602131,,3.611698703,1.331837995,-0.514343429,-1.333802208,0.121910393
2.928967969,0.740690849,0.041807625,-0.269227501,,3.613124684,0.09639407,-1.07186769,-2.521145791,0.181194075
2.928967969,0.740690849,0.041807625,-0.269227501,,3.613584368,0.432946321,-0.909510635,-2.194605131,0.155357572
2.929156903,0.067383426,0.005331913,-0.027445157,,3.613953258,0.198865104,-1.021281806,-2.421582491,0.172003658
2.929763091,0.87476677,0.045650767,-0.310124384,,3.614133294,0.330676079,-0.957771218,-2.293640946,0.161962396
2.929763091,0.87476677,0.045650767,-0.310124384,,3.614291648,0.625261939,-0.820605161,-2.008254255,0.145309414
2.930601635,1.009529037,0.048420321,-0.348761569,,3.614606122,2.538243131,-0.175452301,-0.194287105,0.085203324
2.931980937,1.144085044,0.050114155,-0.384838797,,3.615487945,0.727294806,-0.774339554,-1.909447443,0.140993823
2.932763296,2.823361183,-0.0140166,-0.620699943,,3.616438381,0.858347069,-0.715850388,-1.783108053,0.13618622
2.932763296,2.823361183,-0.0140166,-0.620699943,,3.616618424,2.557460407,-0.17416675,-0.174697543,0.08515882
2.933900996,1.278434791,0.050746615,-0.418348561,,3.616718391,0.959876974,-0.671264013,-1.685720168,0.132882104
2.933900996,1.278434791,0.050746615,-0.418348561,,3.61769619,2.380551635,-0.192895688,-0.344711677,0.087634996
2.935852137,1.41218399,0.050321183,-0.449218734,,3.619219586,1.15114835,-0.589057723,-1.502541998,0.127382605
2.935852137,1.41218399,0.050321183,-0.449218734,,3.621502752,1.252335543,-0.546670291,-1.405804797,0.124678496
2.936470469,2.07046553,0.032946256,-0.565047693,,3.62151022,2.491985177,-0.179241511,-0.235967128,0.085851301
2.937825878,2.377401536,0.016739328,-0.597722424,,3.62339082,0.016744323,-1.110833063,-2.595579762,0.189661961
2.937825878,2.377401536,0.016739328,-0.597722424,,3.623480296,2.333082095,-0.200246477,-0.387620481,0.08904465
2.938300605,1.546023092,0.048854251,-0.477586206,,3.624074304,0.512375478,-0.871953543,-2.114648161,0.151195471
2.938510608,1.942038436,0.038298345,-0.547138982,,3.624204071,0.545791077,-0.856533112,-2.082246754,0.149461747
2.938510608,1.942038436,0.038298345,-0.547138982,,3.624433281,1.382503967,-0.493536528,-1.281808518,0.121180278
2.940061382,1.678528232,0.046357692,-0.503225567,,3.626702091,1.483506683,-0.453592636,-1.185902637,0.118354571
2.941134468,1.809699411,0.042871073,-0.526202519,,3.627787724,1.038672389,-0.636793544,-1.606976683,0.130998414
2.941134468,1.809699411,0.042871073,-0.526202519,,3.628228526,1.071938058,-0.622497059,-1.575098957,0.130058021
2.94525946,2.874385831,-0.018133134,-0.620245824,,3.629365043,1.829630721,-0.328639344,-0.86020399,0.10697374
2.94525946,2.874385831,-0.018133134,-0.620245824,,3.631409296,2.586520318,-0.172599277,-0.139424219,0.085398508
2.947586621,2.60798507,0.001651218,-0.612324848,,3.631524158,1.857116807,-0.319648592,-0.833656686,0.106099081
2.947586621,2.60798507,0.001651218,-0.612324848,,3.633395894,1.67604161,-0.381286652,-1.002779098,0.112637908
2.947586621,2.60798507,0.001651218,-0.612324848,,3.633666048,2.629231471,-0.171295862,-0.096322518,0.085397202
2.947586621,2.60798507,0.001651218,-0.612324848,,3.633712151,2.431436426,-0.185664587,-0.289007347,0.087231536
2.947586621,2.60798507,0.001651218,-0.612324848,,3.635340882,2.02385879,-0.269518728,-0.675641023,0.100065139
2.947586621,2.60798507,0.001651218,-0.612324848,,3.63844434,1.777108596,-0.345817676,-0.906208646,0.109440229
2.948797499,2.916257221,-0.021501391,-0.620170214,,3.639128255,1.561754157,-0.423222038,-1.108103981,0.116700989
2.952335539,2.95812861,-0.024976624,-0.619845855,,3.640277698,1.595370908,-0.410571695,-1.076119337,0.115708576
2.955873579,3,-0.028677093,-0.619283202,,3.642511189,2.6713115,-0.171141909,-0.050225911,0.085581595
2.956919758,2.252877819,0.024060794,-0.584698987,,3.644375684,2.268654777,-0.211254569,-0.440421469,0.091877154
2.956919758,2.252877819,0.024060794,-0.584698987,,3.644937278,2.387733057,-0.191231569,-0.326201876,0.088590856
2.957151926,2.664117413,-0.002404167,-0.614027202,,3.64857207,1.906037196,-0.303589603,-0.781507171,0.105316556
2.957151926,2.664117413,-0.002404167,-0.614027202,,3.648653435,2.658549086,-0.171086037,-0.059894601,0.085562169
2.957228135,2.437329322,0.013101072,-0.600969079,,3.652192856,0.033392445,-1.099364963,-2.57194487,0.188780366
2.966717231,2.720249756,-0.00661327,-0.615211495,,3.652248761,0.131945219,-1.050611362,-2.476260924,0.179002352
2.966717231,2.720249756,-0.00661327,-0.615211495,,3.652610894,0.39707571,-0.923911066,-2.218401581,0.158699115
2.966781593,0.537951668,0.034389335,-0.202114772,,3.652823933,0.495427946,-0.878235071,-2.122815132,0.152976395
2.966781593,0.537951668,0.034389335,-0.202114772,,3.653035513,0.562005426,-0.847655618,-2.058172534,0.149551024
2.966830096,0.268997351,0.019668291,-0.105790295,,3.65344692,0.660146603,-0.803045093,-1.963012777,0.145072398
2.966830096,0.268997351,0.019668291,-0.105790295,,3.654014187,2.625318747,-0.171353855,-0.090302817,0.08560424
2.966956486,0.403179419,0.027612086,-0.155042424,,3.655297163,2.341664785,-0.197973486,-0.366025462,0.090185198
2.966956486,0.403179419,0.027612086,-0.155042424,,3.655358669,0.923750988,-0.685832634,-1.708378821,0.135615178
2.967009458,0.134766852,0.010493982,-0.054162685,,3.656367066,1.021381423,-0.643417934,-1.614502178,0.132763601
2.967009458,0.134766852,0.010493982,-0.054162685,,3.6572029,1.087444889,-0.615055373,-1.551104654,0.130955182
2.967102752,0.67273561,0.040005493,-0.246752443,,3.658661345,1.184790833,-0.573814358,-1.457871812,0.12840045
2.967102752,0.67273561,0.040005493,-0.246752443,,3.659254973,2.005234307,-0.273817817,-0.684130076,0.102157779
2.967391304,0,0,0,,3.663135475,2.37254803,-0.192974052,-0.332947999,0.08964514
2.967478412,0.806892775,0.044464148,-0.288747081,,3.664555943,1.446617423,-0.466915803,-1.207853228,0.121616006
2.967478412,0.806892775,0.044464148,-0.288747081,,3.66551015,2.510309483,-0.177032247,-0.198132423,0.086809157
2.968692995,0.940887452,0.047825063,-0.328226331,,3.667475252,1.543722774,-0.429188447,-1.11529141,0.118930359
2.968692995,0.940887452,0.047825063,-0.328226331,,3.668615416,2.181166275,-0.228693635,-0.513869024,0.096006136
2.969531539,1.07564972,0.050099123,-0.365467057,,3.669858546,1.609587075,-0.404343341,-1.052448434,0.117022499
2.969531539,1.07564972,0.050099123,-0.365467057,,3.671177639,2.275884681,-0.209016843,-0.422397611,0.092837546
2.971451598,1.209999466,0.05129908,-0.400069121,,3.672582069,2.54889808,-0.174210428,-0.156927124,0.08639757
2.971451598,1.209999466,0.05129908,-0.400069121,,3.672808913,2.653904253,-0.171063459,-0.052499804,0.085577991
2.971587575,2.135613289,0.030320541,-0.570696228,,3.67346146,2.586243659,-0.172352447,-0.119601486,0.085997601
2.971587575,2.135613289,0.030320541,-0.570696228,,3.673973172,1.706870298,-0.36892214,-0.959470086,0.114055809
2.973179153,1.343872004,0.051417871,-0.432071393,,3.674277196,2.565086368,-0.173293861,-0.140146897,0.08622619
2.973179153,1.343872004,0.051417871,-0.432071393,,3.674943207,2.463500513,-0.181201747,-0.239532917,0.087868069
2.973627714,2.007186195,0.036214665,-0.554127693,,3.67697051,2.083628327,-0.251941782,-0.603161608,0.100100649
2.973627714,2.007186195,0.036214665,-0.554127693,,3.680975948,0.016648122,-1.10461281,-2.580636489,0.191438967
2.97535388,1.477497865,0.050479748,-0.461508449,,3.681583303,0.51187337,-0.869148103,-2.098498749,0.152929252
2.97535388,1.477497865,0.050479748,-0.461508449,,3.681665115,0.545035251,-0.853990676,-2.066256041,0.151238914
2.976282536,2.776382099,-0.010968886,-0.61587806,,3.683734618,2.11560608,-0.243603264,-0.570135579,0.099209196
2.976282536,2.776382099,-0.010968886,-0.61587806,,3.685136059,1.037263777,-0.635781668,-1.590135773,0.133551707
2.976630393,2.497257109,0.009217687,-0.603576912,,3.685531092,1.070061574,-0.621714985,-1.558615113,0.13268391
2.977802348,1.611336967,0.048480366,-0.488472269,,3.690619969,0.19848063,-1.015037201,-2.401094397,0.17416476
2.977802348,1.611336967,0.048480366,-0.488472269,,3.690800005,0.330291605,-0.95265475,-2.272585972,0.164111733
2.978875434,1.742508146,0.045465941,-0.512525175,,3.690936828,2.616237911,-0.171303949,-0.081180773,0.085792623
2.978875434,1.742508146,0.045465941,-0.512525175,,3.691332283,0.096001869,-1.06445569,-2.500720387,0.18349603
2.98059669,1.876158908,0.041365032,-0.534490056,,3.691791967,0.432554119,-0.905049335,-2.172692192,0.157613153
2.98059669,1.876158908,0.041365032,-0.534490056,,3.691963001,0.725896333,-0.771986645,-1.887813093,0.143675309
2.981296962,2.319703483,0.020444009,-0.58930957,,3.692303739,0.623835359,-0.817753866,-1.986606431,0.147859349
2.985847841,2.832514442,-0.015462002,-0.616030406,,3.692913437,0.856948597,-0.713931827,-1.760939637,0.139143752
2.985847841,2.832514442,-0.015462002,-0.616030406,,3.694344542,1.96620305,-0.283685606,-0.707556657,0.10563095
2.985847841,2.832514442,-0.015462002,-0.616030406,,3.694406648,2.440599568,-0.183258599,-0.253020872,0.088847596
2.985847841,2.832514442,-0.015462002,-0.616030406,,3.694730482,0.958450395,-0.66954875,-1.662678164,0.136141795
2.985847841,2.832514442,-0.015462002,-0.616030406,,3.695417372,2.188396178,-0.226092363,-0.496043241,0.09698246
2.985847841,2.832514442,-0.015462002,-0.616030406,,3.696404907,1.558533381,-0.422681404,-1.091204046,0.120138896
2.989385881,2.874385831,-0.018840399,-0.616163583,,3.697045084,1.147814304,-0.588379625,-1.480559082,0.131168113
2.989385881,2.874385831,-0.018840399,-0.616163583,,3.697638759,1.590780932,-0.410483116,-1.06034766,0.119222331
2.99292392,2.916257221,-0.022268946,-0.616025188,,3.697794891,1.249067187,-0.545996575,-1.38381129,0.128636613
2.99292392,2.916257221,-0.022268946,-0.616025188,,3.70072542,1.379235611,-0.492747692,-1.259219905,0.125428454
2.996032651,2.557184895,0.005088277,-0.605539629,,3.701901359,0.250332215,-0.989466499,-2.347420726,0.170250383
2.996032651,2.557184895,0.005088277,-0.605539629,,3.701939741,0.27843279,-0.976205443,-2.320003963,0.168109924
2.99646196,2.95812861,-0.025756752,-0.615656231,,3.703403505,0.777382311,-0.748685653,-1.834503233,0.142169717
2.99646196,2.95812861,-0.025756752,-0.615656231,,3.703606127,0.805321137,-0.736322823,-1.807437338,0.141214372
3,3,-0.029352263,-0.615161381,,3.704527589,1.480172637,-0.452624926,-1.162359624,0.122877691
3,3,-0.029352263,-0.615161381,,3.705359163,2.061519018,-0.256603716,-0.612916267,0.102415995
3.000390842,2.195179766,0.027587891,-0.575368179,,3.709736482,2.427807975,-0.184356784,-0.258539451,0.08951952
3.000390842,2.195179766,0.027587891,-0.575368179,,3.709760028,1.29985988,-0.524756288,-1.331476414,0.127938516
3.005038012,0.335820208,0.024107326,-0.130215968,,3.710384783,1.327610282,-0.513397362,-1.304896411,0.127264136
3.005064498,0.201613925,0.015434784,-0.079930431,,3.711565521,1.667125475,-0.381897114,-0.98333574,0.117573307
3.005164401,0.470002276,0.031552752,-0.178114983,,3.714708684,2.634481889,-0.170799598,-0.050937868,0.085477669
3.005164401,0.470002276,0.031552752,-0.178114983,,3.715073828,1.768368132,-0.346058952,-0.886528138,0.11428951
3.005237534,0.604780372,0.037834016,-0.223809436,,3.715551484,2.12418877,-0.240244451,-0.549126947,0.100387237
3.005237534,0.604780372,0.037834016,-0.223809436,,3.715578642,0.081896753,-1.06891235,-2.507932646,0.185522274
3.00524386,0.067383426,0.005488701,-0.0272931,,3.715878735,2.28146867,-0.206444912,-0.398026957,0.094357655
3.00524386,0.067383426,0.005488701,-0.0272931,,3.716018342,0.446407448,-0.897266036,-2.152174032,0.157434032
3.005613195,0.738937537,0.042931014,-0.266859608,,3.7164208,0.60953999,-0.823128693,-1.993257406,0.149189755
3.005674166,2.386529147,0.016501293,-0.593108925,,3.716631305,2.330721557,-0.197867314,-0.350031575,0.092664576
3.005674166,2.386529147,0.016501293,-0.593108925,,3.718964964,0.971829404,-0.663069541,-1.642072941,0.136702996
3.006408316,0.873013458,0.046901214,-0.307434822,,3.720908242,1.133170913,-0.593966008,-1.48668083,0.132595271
3.007622898,1.007008135,0.04976623,-0.34552134,,3.723234158,2.356737047,-0.193556117,-0.321819727,0.09198261
3.007622898,1.007008135,0.04976623,-0.34552134,,3.725008812,2.519292088,-0.175231063,-0.161189673,0.087464026
3.00874482,2.072333954,0.033802144,-0.560280681,,3.725201558,1.897296731,-0.303364597,-0.760872714,0.110007595
3.00874482,2.072333954,0.033802144,-0.560280681,,3.728487493,1.818324678,-0.328712043,-0.834317996,0.113207727
3.0090022,1.141564142,0.051542367,-0.381282079,,3.72889741,1.492648826,-0.447074051,-1.141977488,0.123839492
3.0090022,1.141564142,0.051542367,-0.381282079,,3.730646608,1.845810764,-0.31959024,-0.807504945,0.112287766
3.010729755,1.27543668,0.052225918,-0.414368769,,3.732960122,2.595226264,-0.171233837,-0.081336954,0.085923223
3.011645612,2.624621246,0.000179187,-0.607534031,,3.734617964,2.213833143,-0.219084765,-0.455240234,0.097588321
3.011645612,2.624621246,0.000179187,-0.607534031,,3.734750973,2.073626384,-0.252222597,-0.589582596,0.103325503
3.012680896,1.409185879,0.051830849,-0.444932918,,3.734967072,1.651283518,-0.38689672,-0.989754649,0.119395003
3.014855623,1.54281174,0.050361267,-0.472966045,,3.7374246,1.996318171,-0.273238594,-0.662155099,0.106653084
3.014855623,1.54281174,0.050361267,-0.472966045,,3.738179186,2.104318382,-0.244230964,-0.558859847,0.102203851
3.015713797,1.941306667,0.039508372,-0.541991074,,3.740966546,0.182067339,-1.018550271,-2.40320169,0.176776279
3.0166164,1.67531688,0.04783239,-0.498312182,,3.741190683,0.346166956,-0.94184765,-2.242728299,0.164250811
3.0166164,1.67531688,0.04783239,-0.498312182,,3.7421254,0.708884529,-0.777662595,-1.888922616,0.145857166
3.018337657,1.808967642,0.044210571,-0.521370604,,3.743308656,0.872039578,-0.705760951,-1.730496463,0.140432092
3.021210917,2.680753589,-0.004083568,-0.608920093,,3.746850646,2.403499166,-0.186243838,-0.265346908,0.090950423
3.024768046,2.26200543,0.02412003,-0.580416149,,3.747665453,1.23095762,-0.552292022,-1.384234452,0.131414297
3.025076424,2.446456934,0.012678541,-0.596028256,,3.749545302,2.560517339,-0.172217683,-0.108001348,0.086540606
3.030776222,2.736885932,-0.008504427,-0.609786449,,3.751240429,2.576705626,-0.171483131,-0.090852377,0.086155294
3.031052547,2.853552498,-0.017825847,-0.611923028,,3.75131385,1.393012323,-0.485902189,-1.228582039,0.127645459
3.031052547,2.853552498,-0.017825847,-0.611923028,,3.754716743,0.014024078,-1.097738107,-2.563629627,0.19367668
3.034590587,2.895423887,-0.021296545,-0.611865655,,3.755059723,0.513845946,-0.864457591,-2.074886257,0.154746499
3.038128627,2.937295277,-0.024778026,-0.611578417,,3.75512864,0.541780918,-0.851850829,-2.047609354,0.153358027
3.040341527,2.793018275,-0.013071268,-0.610136257,,3.758241088,1.038006703,-0.633560212,-1.565628991,0.136469731
3.040341527,2.793018275,-0.013071268,-0.610136257,,3.758573857,1.065634977,-0.621741469,-1.538953057,0.135804011
3.041666667,2.979166667,-0.028190815,-0.6111202,,3.759167949,2.512767578,-0.174844086,-0.151159506,0.087732868
3.043119537,0.268460997,0.020181181,-0.104950134,,3.759986897,2.174238153,-0.226669678,-0.482618884,0.100134738
3.043119537,0.268460997,0.020181181,-0.104950134,,3.762183731,2.006517198,-0.269310129,-0.642524277,0.107398922
3.043245927,0.402643066,0.02834238,-0.153875555,,3.764730403,1.746674694,-0.351785044,-0.888396011,0.117763361
3.043298899,0.134230499,0.010750848,-0.053638505,,3.765212905,0.167962223,-1.0230882,-2.410262324,0.178540777
3.043372316,0.536825134,0.035280483,-0.200405913,,3.765417058,0.360020285,-0.933870308,-2.222184767,0.16386995
3.043372316,0.536825134,0.035280483,-0.200405913,,3.765980821,0.065782548,-1.071545904,-2.510026717,0.188361638
3.043372316,0.536825134,0.035280483,-0.200405913,,3.766242461,0.694589159,-0.783096573,-1.895357473,0.147075437
3.043372316,0.536825134,0.035280483,-0.200405913,,3.766249212,0.462057328,-0.887301849,-2.122142535,0.157754092
3.043372316,0.536825134,0.035280483,-0.200405913,,3.766572482,0.593091512,-0.828281407,-1.994110449,0.151251723
3.043372316,0.536825134,0.035280483,-0.200405913,,3.767543138,0.885418587,-0.699218491,-1.709807328,0.140841876
3.043478261,0,0,0,,3.769015128,1.556364189,-0.421356199,-1.067157548,0.124125854
3.043478261,0,0,0,,3.769035015,0.986507721,-0.655405043,-1.611679945,0.138162889
3.043478261,0,0,0,,3.769067026,2.607302719,-0.170186527,-0.05082749,0.085213524
3.043747977,0.670982298,0.041034363,-0.244505735,,3.770054503,1.583528945,-0.411006162,-1.04101412,0.123378807
3.043861926,2.137481713,0.031046581,-0.565583132,,3.770595929,1.11610328,-0.599995602,-1.486455243,0.135075356
3.043861926,2.137481713,0.031046581,-0.565583132,,3.771528612,1.216314229,-0.557836948,-1.390077413,0.132805787
3.043861926,2.137481713,0.031046581,-0.565583132,,3.774497783,2.499975985,-0.175353084,-0.15648039,0.088090077
3.043861926,2.137481713,0.031046581,-0.565583132,,3.775572058,0.247331133,-0.985124716,-2.329619985,0.172143012
3.043861926,2.137481713,0.031046581,-0.565583132,,3.775617621,0.280689604,-0.969674369,-2.296924996,0.16960394
3.043861926,2.137481713,0.031046581,-0.565583132,,3.77568367,1.405488512,-0.480285563,-1.208090574,0.128520398
3.044123638,0.805139463,0.045631844,-0.286170579,,3.776880542,0.773417827,-0.74792629,-1.815405675,0.144577816
3.044123638,0.805139463,0.045631844,-0.286170579,,3.777121076,0.806584284,-0.733363019,-1.783130206,0.143510192
3.044478682,2.50638472,0.008597747,-0.598297653,,3.777339039,1.907185863,-0.298197402,-0.731124082,0.112259869
3.044478682,2.50638472,0.008597747,-0.598297653,,3.778867119,1.505139308,-0.440828063,-1.11218938,0.126073401
3.04533822,0.93913414,0.049105553,-0.325314634,,3.779048065,2.157499696,-0.229666049,-0.490654344,0.101527625
3.046552802,1.073128817,0.05146474,-0.361998316,,3.779176077,2.267589594,-0.206556552,-0.383793579,0.096773333
3.046552802,1.073128817,0.05146474,-0.361998316,,3.783033332,1.294119782,-0.525343019,-1.311697275,0.131525961
3.046552802,1.073128817,0.05146474,-0.361998316,,3.7837425,1.632560651,-0.392232995,-0.989428802,0.122577895
3.046552802,1.073128817,0.05146474,-0.361998316,,3.783774985,1.327062559,-0.511824597,-1.279978578,0.130794384
3.046552802,1.073128817,0.05146474,-0.361998316,,3.788131954,1.730832737,-0.356518567,-0.894508093,0.119529137
3.046552802,1.073128817,0.05146474,-0.361998316,,3.79691625,2.459290741,-0.17819571,-0.186321952,0.089429289
3.048280357,1.207001355,0.052727436,-0.396160547,,3.79850824,2.312768573,-0.197709367,-0.330865849,0.09526563
3.04914525,2.328831094,0.020317063,-0.584649308,,3.802014044,1.807327882,-0.329613417,-0.816433973,0.117413606
3.050007912,1.340873893,0.05289175,-0.427843102,,3.802098171,1.91738489,-0.294005604,-0.711510784,0.11299259
3.050007912,1.340873893,0.05289175,-0.427843102,,3.803841479,2.064793813,-0.251542866,-0.569532178,0.106581441
3.050830903,2.006454425,0.03732254,-0.548653272,,3.804352029,0.132317959,-1.036251017,-2.434303957,0.182573501
3.052182639,1.474499754,0.051969697,-0.456960275,,3.804355151,0.23058681,-0.990592096,-2.33785663,0.174026529
3.054357366,1.608125615,0.049953125,-0.483579029,,3.80437699,0.297135028,-0.960009913,-2.272532964,0.168961728
3.054357366,1.608125615,0.049953125,-0.483579029,,3.804438324,0.395273223,-0.915339874,-2.176237532,0.162436952
3.054357366,1.608125615,0.049953125,-0.483579029,,3.80457715,1.839956887,-0.318641711,-0.784359798,0.116267901
3.054357366,1.608125615,0.049953125,-0.483579029,,3.805088563,0.658841242,-0.797429971,-1.918122802,0.149445702
3.054357366,1.608125615,0.049953125,-0.483579029,,3.805111093,2.338784063,-0.193223322,-0.302207399,0.094255399
3.054357366,1.608125615,0.049953125,-0.483579029,,3.805510143,0.756447652,-0.754425136,-1.822844866,0.145931984
3.056078623,1.741776377,0.046832926,-0.507716209,,3.805890069,0.822466638,-0.725530801,-1.758511266,0.143853557
3.057799879,1.875427138,0.042620837,-0.529323283,,3.80591877,2.567125897,-0.17036118,-0.072927111,0.085645302
3.057799879,1.875427138,0.042620837,-0.529323283,,3.806589783,0.919705329,-0.683269007,-1.663934523,0.141144891
3.060091642,2.573821071,0.003717721,-0.600649273,,3.806729343,2.0906482,-0.24469255,-0.543404264,0.105506473
3.06823913,2.204307377,0.027742454,-0.571063748,,3.807931072,2.586343174,-0.169628338,-0.05226853,0.084987752
3.06823913,2.204307377,0.027742454,-0.571063748,,3.809729475,1.180379634,-0.57201765,-1.411380936,0.135179427
3.073522454,2.395656759,0.016171632,-0.588055992,,3.810147988,2.389620091,-0.185702879,-0.249487452,0.092168464
3.073522454,2.395656759,0.016171632,-0.588055992,,3.810481854,2.014043483,-0.26508081,-0.615550986,0.109137088
3.075704602,2.641257422,-0.001448104,-0.602214827,,3.811361524,1.276736468,-0.531866017,-1.318378919,0.133146869
3.075704602,2.641257422,-0.001448104,-0.602214827,,3.81270464,1.341873166,-0.505112665,-1.255569193,0.131745401
3.076257254,2.874590554,-0.020294851,-0.607450467,,3.815036597,1.437757497,-0.466415798,-1.163163327,0.12957154
3.076257254,2.874590554,-0.020294851,-0.607450467,,3.8176241,2.243773672,-0.20943322,-0.389908406,0.098707475
3.079795294,2.916461944,-0.023828247,-0.607210174,,3.82402792,2.135318296,-0.232827734,-0.492780083,0.103982871
3.081327452,0.335283855,0.024720435,-0.129196802,,3.824116967,2.551940871,-0.170420048,-0.079139928,0.085792035
3.081353938,0.201077571,0.015816186,-0.07924072,,3.824843156,1.694058485,-0.368380079,-0.915364888,0.122606201
3.081453842,0.469465923,0.032362421,-0.176755464,,3.829794256,1.788521738,-0.334939835,-0.823419162,0.119444568
3.081453842,0.469465923,0.032362421,-0.176755464,,3.833088127,0.280374404,-0.965564685,-2.280694798,0.17069219
3.0815333,0.066847073,0.005597212,-0.026920587,,3.833111851,0.247184658,-0.980693883,-2.313325172,0.17321569
3.0815333,0.066847073,0.005597212,-0.026920587,,3.83396896,1.852064252,-0.313486699,-0.76109149,0.117129582
3.08188276,0.60302706,0.038762244,-0.221692913,,3.834184569,0.772676212,-0.746391845,-1.797886244,0.146143933
3.08188276,0.60302706,0.038762244,-0.221692913,,3.83432396,0.805528741,-0.732061033,-1.765827172,0.145133833
3.08225842,0.737184225,0.044009137,-0.264405844,,3.836685268,2.227035215,-0.211877961,-0.397746194,0.099885142
3.083053542,0.871260146,0.048103464,-0.304637411,,3.839067308,2.48581796,-0.174163505,-0.138866052,0.08808951
3.083333333,2.958333333,-0.02728752,-0.606758263,,3.840006989,1.29216043,-0.524884217,-1.293427453,0.133996873
3.084268124,1.005254823,0.051067869,-0.34237517,,3.840608452,1.324354352,-0.511647524,-1.262337618,0.133326963
3.084268124,1.005254823,0.051067869,-0.34237517,,3.84133887,1.945137164,-0.283812568,-0.668943468,0.11345991
3.085269907,2.697389765,-0.005925961,-0.603262522,,3.842710491,0.461383011,-0.883422911,-2.099941353,0.159338486
3.085546233,2.814056331,-0.015422541,-0.605864148,,3.84271901,0.065782548,-1.063547033,-2.489025226,0.18986151
3.085830959,1.138566031,0.052910673,-0.377457953,,3.84303376,0.592417195,-0.825235762,-1.971292864,0.153006215
3.085830959,1.138566031,0.052910673,-0.377457953,,3.843415095,0.359332415,-0.929117056,-2.200029129,0.165398859
3.085948009,2.071602184,0.034792879,-0.554461929,,3.843493418,0.167962223,-1.016136975,-2.388298786,0.179994375
3.085948009,2.071602184,0.034792879,-0.554461929,,3.844240498,0.69390129,-0.780523922,-1.87158736,0.149039497
3.087558514,1.272438569,0.053653685,-0.410211886,,3.845092067,0.984578768,-0.65438131,-1.588284339,0.140732898
3.089509655,1.406187768,0.053290407,-0.440442177,,3.845128825,0.883450866,-0.697937646,-1.686463955,0.143229144
3.091684382,1.539813629,0.051822125,-0.468141091,,3.846652982,1.114174328,-0.599131423,-1.462381098,0.137951248
3.091684382,1.539813629,0.051822125,-0.468141091,,3.847158941,2.560643311,-0.169150674,-0.058374876,0.084895905
3.092616334,2.271133041,0.024095332,-0.575726231,,3.849114298,1.214346507,-0.556973822,-1.364966099,0.13597745
3.092616334,2.271133041,0.024095332,-0.575726231,,3.85269782,1.400467788,-0.480454158,-1.18502146,0.132131989
3.092916985,1.940574897,0.040670881,-0.536494214,,3.853964589,0.512973698,-0.859893868,-2.045857708,0.156872777
3.092924712,2.455584545,0.01215519,-0.590624647,,3.853979801,0.014024078,-1.086534796,-2.53682552,0.195703524
3.092924712,2.455584545,0.01215519,-0.590624647,,3.854033506,0.54090867,-0.847515972,-2.018410384,0.155531073
3.093819589,1.674585111,0.049213862,-0.493542821,,3.854363895,1.500217506,-0.440735539,-1.088982699,0.129766567
3.093819589,1.674585111,0.049213862,-0.493542821,,3.856182942,2.395696966,-0.182880186,-0.221371948,0.091934863
3.094835212,2.753522108,-0.010563224,-0.603787007,,3.856623076,1.035511548,-0.632340628,-1.535027393,0.139949375
3.094835212,2.753522108,-0.010563224,-0.603787007,,3.856955845,1.063139822,-0.620565913,-1.508164544,0.139367699
3.095540845,1.808235873,0.04550212,-0.516225497,,3.858436181,1.802197783,-0.329164678,-0.798945081,0.120198433
3.108537672,2.523020896,0.007323412,-0.593322867,,3.858477452,2.493148739,-0.172749232,-0.121667678,0.087458594
3.116993538,2.337958706,0.020096391,-0.579558336,,3.858824129,2.297037852,-0.197594403,-0.318573054,0.096745569
3.116993538,2.337958706,0.020096391,-0.579558336,,3.859239276,1.627638849,-0.391705687,-0.965414373,0.126364549
3.119408978,0.267924644,0.020671602,-0.104084442,,3.860047779,1.833111292,-0.318685932,-0.768704852,0.119031304
3.119408978,0.267924644,0.020671602,-0.104084442,,3.865146103,1.725812014,-0.355573685,-0.869315019,0.123355685
3.119535367,0.402106712,0.029041974,-0.152666424,,3.866662441,2.327921098,-0.192074627,-0.28417226,0.095239051
3.119535367,0.402106712,0.029041974,-0.152666424,,3.866672382,1.549997696,-0.421029646,-1.036744882,0.128974777
3.119565217,0,0,0,,3.86760084,0.345213568,-0.933876756,-2.206777791,0.16670185
3.11958834,0.133694145,0.010994673,-0.053103777,,3.867711757,1.577162452,-0.410558834,-1.010378639,0.128251682
3.11958834,0.133694145,0.010994673,-0.053103777,,3.867717545,0.181943951,-1.007605718,-2.367653274,0.179131106
3.119693426,0.535746839,0.036131438,-0.198660175,,3.868395318,0.707571936,-0.773691409,-1.850533621,0.149084374
3.119693426,0.535746839,0.036131438,-0.198660175,,3.868586034,2.189074747,-0.218291563,-0.420631661,0.102390228
3.120393203,0.669228987,0.04201695,-0.242184171,,3.869081022,0.869182686,-0.703474183,-1.692454543,0.144238351
3.120393203,0.669228987,0.04201695,-0.242184171,,3.873244723,1.227339376,-0.551066673,-1.343889228,0.136605614
3.120768863,0.803386151,0.046749374,-0.283497896,,3.875233114,1.905370271,-0.294589858,-0.693128916,0.116557098
3.120768863,0.803386151,0.046749374,-0.283497896,,3.875593086,2.403027746,-0.181021531,-0.204538852,0.09145136
3.12146196,2.89562861,-0.022880407,-0.602553967,,3.876203489,1.385710255,-0.485882377,-1.190509854,0.133437035
3.12146196,2.89562861,-0.022880407,-0.602553967,,3.88145183,2.277167465,-0.199954672,-0.327734849,0.097930865
3.121983446,0.937380828,0.050333185,-0.322284034,,3.882175855,2.002265582,-0.265056471,-0.596710102,0.112257801
3.121983446,0.937380828,0.050333185,-0.322284034,,3.887847677,2.542785717,-0.168211859,-0.055650888,0.084419392
3.123077778,1.070744608,0.052767994,-0.358444308,,3.887963142,2.493677126,-0.171338608,-0.106151413,0.086775661
3.123077778,1.070744608,0.052767994,-0.358444308,,3.889273545,1.737332467,-0.35059342,-0.848677886,0.123973406
3.124150633,2.590457247,0.002185793,-0.595227841,,3.889704415,2.336623539,-0.189519969,-0.264487582,0.094790278
3.125,2.9375,-0.026463129,-0.602085676,,3.892921246,0.444847331,-0.88802409,-2.101010703,0.161051429
3.125109116,1.204003244,0.054099639,-0.392088829,,3.893122213,0.081896753,-1.050873285,-2.459168749,0.188944661
3.125109116,1.204003244,0.054099639,-0.392088829,,3.893323704,0.607979872,-0.816289026,-1.940317745,0.153295815
3.126836671,1.337875782,0.05431035,-0.423424441,,3.894932639,0.967366528,-0.660628593,-1.588161253,0.142546195
3.126836671,1.337875782,0.05431035,-0.423424441,,3.895721921,2.123540395,-0.232055344,-0.472735311,0.106377452
3.128034091,2.005722656,0.038377312,-0.542808992,,3.896579734,2.04955876,-0.251124951,-0.544587238,0.110298825
3.128034091,2.005722656,0.038377312,-0.542808992,,3.896875918,1.128708036,-0.591984849,-1.430814275,0.139317761
3.12826996,2.145854983,0.031493119,-0.559831215,,3.897201442,1.889404639,-0.298680747,-0.699355159,0.118089117
3.12826996,2.145854983,0.031493119,-0.559831215,,3.899467598,2.075413147,-0.244068101,-0.518125718,0.109021532
3.129011398,1.471501643,0.05340586,-0.452192914,,3.901194879,2.424006476,-0.177245624,-0.170624368,0.090040999
3.129011398,1.471501643,0.05340586,-0.452192914,,3.903568813,1.48126161,-0.446962977,-1.088532559,0.132318893
3.13075094,2.835094387,-0.017911694,-0.601185846,,3.906655146,0.277570107,-0.961388136,-2.26201305,0.171951352
3.131417284,1.604892578,0.051383626,-0.478404011,,3.90667513,0.249611662,-0.973868327,-2.289635718,0.17406937
3.131417284,1.604892578,0.051383626,-0.478404011,,3.907299954,0.77442197,-0.743391182,-1.772494868,0.147746617
3.133281811,1.741044607,0.048146699,-0.502610084,,3.907417375,0.802096349,-0.731421897,-1.745350283,0.146948755
3.133281811,1.741044607,0.048146699,-0.502610084,,3.908905957,2.287387878,-0.196623133,-0.304611972,0.097465858
3.135003068,1.874695369,0.043823381,-0.523823911,,3.90932023,2.315960707,-0.191733744,-0.275796651,0.095859911
3.135003068,1.874695369,0.043823381,-0.523823911,,3.909638475,1.639896301,-0.385535999,-0.933979514,0.128141795
3.139763593,2.657893598,-0.003249918,-0.59633209,,3.909820212,2.215020596,-0.210521572,-0.376211769,0.10155032
3.139763593,2.657893598,-0.003249918,-0.59633209,,3.912443641,1.292189001,-0.523398849,-1.267170531,0.136734569
3.140039919,2.774560164,-0.012915988,-0.599345501,,3.912950303,1.319308581,-0.512214145,-1.240821945,0.136222898
3.141370742,2.40478437,0.015737025,-0.582546473,,3.91710699,0.430728484,-0.892905392,-2.107590092,0.162163218
3.141370742,2.40478437,0.015737025,-0.582546473,,3.91734634,0.09587848,-1.042050507,-2.438569055,0.187818402
3.141370742,2.40478437,0.015737025,-0.582546473,,3.917478524,0.621650519,-0.80935736,-1.919246946,0.153148558
3.141370742,2.40478437,0.015737025,-0.582546473,,3.91788606,0.329046143,-0.937723224,-2.207818716,0.168444182
3.141370742,2.40478437,0.015737025,-0.582546473,,3.917979802,0.197901854,-0.996081014,-2.337485246,0.178392981
3.141370742,2.40478437,0.015737025,-0.582546473,,3.918391239,0.722965954,-0.765326366,-1.819357385,0.149551596
3.149328898,2.714025941,-0.007952371,-0.597011571,,3.918460986,2.381593796,-0.181485047,-0.205132716,0.092086401
3.149328898,2.714025941,-0.007952371,-0.597011571,,3.918884837,0.953098348,-0.666210034,-1.593917547,0.143468543
3.152647164,2.212680648,0.027987066,-0.564852556,,3.918942023,0.852777778,-0.709258268,-1.691925595,0.145832398
3.156983703,2.472220721,0.010972379,-0.585582982,,3.921006342,1.141700905,-0.586055552,-1.409683296,0.13981228
3.156983703,2.472220721,0.010972379,-0.585582982,,3.922917719,1.241325101,-0.54429191,-1.312488218,0.13804898
3.157616893,0.334747501,0.025305034,-0.128144254,,3.925294312,1.36853454,-0.491812964,-1.188768525,0.135673492
3.157616893,0.334747501,0.025305034,-0.128144254,,3.927074482,1.466504076,-0.452264106,-1.093736353,0.133587695
3.157620257,0.066847073,0.005741746,-0.026757256,,3.927437734,0.509705164,-0.857747103,-2.026454434,0.158175403
3.157643379,0.200541218,0.016178564,-0.078533425,,3.927519546,0.542867046,-0.843265851,-1.993710489,0.156623146
3.157643379,0.200541218,0.016178564,-0.078533425,,3.927720761,0.016648122,-1.076902532,-2.51402536,0.196441185
3.157774951,0.468387628,0.033106696,-0.175158763,,3.92805693,1.979267526,-0.269458554,-0.599279037,0.114779238
3.158203869,0.601948765,0.039670041,-0.219738531,,3.92902957,1.798109013,-0.327738648,-0.774092403,0.12317845
3.158903646,0.735430913,0.045035725,-0.261867418,,3.929690737,1.031061403,-0.632731927,-1.514189228,0.142134002
3.158903646,0.735430913,0.045035725,-0.261867418,,3.929986436,2.472665479,-0.170844352,-0.106206669,0.086696073
3.159698767,0.869506834,0.049250544,-0.301733311,,3.93008577,1.0638592,-0.618794778,-1.482116195,0.141514931
3.159698767,0.869506834,0.049250544,-0.301733311,,3.930387151,1.824149997,-0.318770021,-0.748425878,0.122141384
3.1607931,1.002870613,0.05229837,-0.338932972,,3.932947074,2.223630088,-0.207409237,-0.35689068,0.101203465
3.162355935,1.136181821,0.054219604,-0.373652218,,3.933765917,1.651416755,-0.38044982,-0.913312183,0.128728903
3.164387273,1.269440458,0.055021305,-0.405879281,,3.934984996,2.364187798,-0.182912036,-0.214632456,0.092848978
3.164387273,1.269440458,0.055021305,-0.405879281,,3.938017413,1.748097316,-0.344937029,-0.81856544,0.125488186
3.166338414,1.403189657,0.05469083,-0.435747591,,3.939158065,1.542707763,-0.421889442,-1.015732998,0.132134663
3.166338414,1.403189657,0.05469083,-0.435747591,,3.940391917,1.574955314,-0.409333285,-0.984218477,0.131296202
3.166666667,2.916666667,-0.025637919,-0.597150449,,3.942206018,2.515606547,-0.166920958,-0.055374876,0.083820373
3.166666667,2.916666667,-0.025637919,-0.597150449,,3.944385398,1.870247396,-0.302757285,-0.69801119,0.120577498
3.166666667,2.916666667,-0.025637919,-0.597150449,,3.944921264,2.130250024,-0.227660438,-0.44394035,0.106818086
3.1687443,1.536580592,0.053233011,-0.463022555,,3.950025258,1.963301894,-0.273107386,-0.605276086,0.116195111
3.170120174,1.939843128,0.041774745,-0.530645247,,3.955703694,2.444535619,-0.171965322,-0.121990681,0.087544848
3.170120174,1.939843128,0.041774745,-0.530645247,,3.956148871,0.492944541,-0.863646827,-2.034108555,0.159338233
3.170356042,2.079975455,0.035348565,-0.5487519,,3.956158227,0.395155931,-0.906236543,-2.130901589,0.164650502
3.170879506,1.671352074,0.050595202,-0.488058951,,3.956193972,0.559095606,-0.83493513,-1.968698002,0.156269791
3.172596663,2.539657072,0.005882744,-0.587819246,,3.956336437,0.656541907,-0.792770381,-1.872465424,0.152417951
3.172596663,2.539657072,0.005882744,-0.587819246,,3.956346783,0.131366443,-1.022321774,-2.392381413,0.184728202
3.172744034,1.807504103,0.046735294,-0.510765079,,3.956477462,0.033245969,-1.066143144,-2.489634098,0.194851863
3.172744034,1.807504103,0.046735294,-0.510765079,,3.957444308,0.917651217,-0.680527381,-1.615422689,0.145102731
3.175955646,2.856132444,-0.020563493,-0.596052587,,3.958124628,1.014123506,-0.639385361,-1.520807692,0.143155286
3.175955646,2.856132444,-0.020563493,-0.596052587,,3.958731235,1.079283163,-0.611732829,-1.45699883,0.141972922
3.177024368,2.279506312,0.024117118,-0.56903639,,3.959841226,1.175119795,-0.571315335,-1.363288764,0.140338739
3.185244625,2.79559822,-0.015431616,-0.594478622,,3.96462161,1.430994549,-0.46565624,-1.113554236,0.135734186
3.185244625,2.79559822,-0.015431616,-0.594478622,,3.965276646,2.035755593,-0.251200744,-0.527743393,0.112610999
3.188209624,2.607093423,0.000471821,-0.589244732,,3.967061877,1.525188949,-0.428028078,-1.021656324,0.133607116
3.188209624,2.607093423,0.000471821,-0.589244732,,3.968048126,2.138859516,-0.224187636,-0.42480485,0.106545943
3.194533605,2.735063997,-0.01031225,-0.592413554,,3.968704859,2.066447592,-0.242597819,-0.496040537,0.110900063
3.194533605,2.735063997,-0.01031225,-0.592413554,,3.969033842,1.588631359,-0.403237315,-0.959664269,0.131953598
3.195652174,0,0,0,,3.971739773,2.277312279,-0.194633862,-0.284580621,0.097787565
3.195675296,0.133694145,0.011265594,-0.05276684,,3.972088748,2.301381515,-0.190377494,-0.260073292,0.096227088
3.195698418,0.267388291,0.021136614,-0.103193796,,3.972227703,2.427129621,-0.172752266,-0.131463467,0.088108081
3.195698418,0.267388291,0.021136614,-0.103193796,,3.972413534,1.68167768,-0.367875545,-0.868515477,0.129132503
3.195698418,0.267388291,0.021136614,-0.103193796,,3.977066884,2.229459174,-0.203489853,-0.330187684,0.100848249
3.195698418,0.267388291,0.021136614,-0.103193796,,3.978703819,2.342360406,-0.183363894,-0.21515835,0.093444392
3.195698418,0.267388291,0.021136614,-0.103193796,,3.982281101,2.493082232,-0.166036354,-0.05773865,0.083478968
3.195698418,0.267388291,0.021136614,-0.103193796,,3.9847703,0.5424195,-0.840890107,-1.976191417,0.157311966
3.195856477,0.401028417,0.029675035,-0.151225391,,3.984807011,0.509430317,-0.855119697,-2.008859087,0.158826789
3.196014535,0.534668544,0.03693831,-0.19685765,,3.985222382,1.927375814,-0.282370469,-0.624940415,0.118951719
3.196014535,0.534668544,0.03693831,-0.19685765,,3.985278439,0.016597847,-1.070316979,-2.498155913,0.196965658
3.196714312,0.668150691,0.042970648,-0.240009373,,3.986644859,1.030088052,-0.632082185,-1.495194926,0.143492631
3.197414089,0.801632839,0.047810042,-0.280730556,,3.986856433,1.062449911,-0.61836604,-1.463459059,0.142929661
3.197414089,0.801632839,0.047810042,-0.280730556,,3.991355465,2.016802634,-0.255070247,-0.534675149,0.114166992
3.197414089,0.801632839,0.047810042,-0.280730556,,3.994443064,0.328845217,-0.932668649,-2.1851246,0.169134333
3.197414089,0.801632839,0.047810042,-0.280730556,,3.994474553,0.722074826,-0.763317544,-1.795395633,0.15074827
3.197414089,0.801632839,0.047810042,-0.280730556,,3.994536805,0.197700929,-0.989683944,-2.315486863,0.179034669
3.197414089,0.801632839,0.047810042,-0.280730556,,3.995025337,0.85188665,-0.707775151,-1.667225511,0.147267222
3.198508422,0.934996619,0.051484197,-0.318965066,,3.995091,0.62074148,-0.806765616,-1.895369873,0.154204601
3.199602754,1.068360398,0.054008439,-0.354752726,,3.995202677,0.43052352,-0.888647428,-2.083894546,0.162951509
3.199602754,1.068360398,0.054008439,-0.354752726,,3.995442026,0.095673516,-1.034273542,-2.416706456,0.188490437
3.201401572,2.346331976,0.019872685,-0.572368183,,3.995469741,1.53997087,-0.421477823,-0.996113237,0.134185729
3.201401572,2.346331976,0.019872685,-0.572368183,,3.996158986,2.076668006,-0.238218713,-0.473475634,0.110650601
3.201634092,1.201619034,0.055405784,-0.388018257,,3.996207854,1.571165729,-0.409241808,-0.965641119,0.133371704
3.20366543,1.334877671,0.055664764,-0.418817318,,3.996497313,0.95218931,-0.664991689,-1.568113695,0.145139902
3.20366543,1.334877671,0.055664764,-0.418817318,,3.997870874,1.139014594,-0.585862634,-1.384681595,0.141909503
3.20366543,1.334877671,0.055664764,-0.418817318,,3.998267827,1.238691718,-0.544079358,-1.287329712,0.140315822
3.20366543,1.334877671,0.055664764,-0.418817318,,4.000644419,1.365901157,-0.491411314,-1.162749748,0.138180261
3.20366543,1.334877671,0.055664764,-0.418817318,,4.001896915,2.4724194,-0.16638939,-0.068980631,0.08396508
3.20366543,1.334877671,0.055664764,-0.418817318,,4.003939015,1.463817766,-0.451579362,-1.066496792,0.136287302
3.203822584,2.674529774,-0.005252529,-0.58984793,,4.004202772,2.163924822,-0.215958887,-0.382967602,0.105098281
3.203822584,2.674529774,-0.005252529,-0.58984793,,4.005683835,0.277310204,-0.954205291,-2.233010218,0.172807924
3.203822584,2.674529774,-0.005252529,-0.58984793,,4.005703819,0.249351759,-0.966317344,-2.260825692,0.174912941
3.203822584,2.674529774,-0.005252529,-0.58984793,,4.005715912,0.77326927,-0.741087878,-1.741131389,0.149410829
3.203822584,2.674529774,-0.005252529,-0.58984793,,4.005833333,0.800943649,-0.729263041,-1.713782684,0.148678783
3.203822584,2.674529774,-0.005252529,-0.58984793,,4.007495376,2.39101941,-0.174649362,-0.15066414,0.089381022
3.203822584,2.674529774,-0.005252529,-0.58984793,,4.008609374,1.644438728,-0.380662256,-0.889679043,0.131573824
3.206071316,1.468268606,0.054785491,-0.447146628,,4.009911175,1.288782644,-0.523053709,-1.234195982,0.139797871
3.206414359,2.420964115,0.014674738,-0.577326771,,4.010417837,1.315902225,-0.511817423,-1.207610915,0.139351414
3.206414359,2.420964115,0.014674738,-0.577326771,,4.011386265,1.741256774,-0.34455846,-0.794679397,0.128198458
3.208333333,2.895833333,-0.024796696,-0.591996019,,4.017754249,1.863406853,-0.301545056,-0.673154848,0.12298494
3.208477201,1.601659541,0.052752181,-0.472980351,,4.018865436,2.028884094,-0.24997636,-0.510337196,0.1138549
3.208477201,1.601659541,0.052752181,-0.472980351,,4.019163184,0.606693829,-0.811869347,-1.901550116,0.154964145
3.210341729,1.73781157,0.049467069,-0.496800706,,4.019343778,0.44441084,-0.881362297,-2.062645742,0.16235507
3.212206256,1.8739636,0.044961811,-0.517990652,,4.019615815,2.479337168,-0.164573006,-0.052341128,0.082632649
3.212206256,1.8739636,0.044961811,-0.517990652,,4.019703451,0.081649438,-1.037927528,-2.423783835,0.190034269
3.212206256,1.8739636,0.044961811,-0.517990652,,4.020240744,2.058057467,-0.241741888,-0.480855933,0.112057358
3.212206256,1.8739636,0.044961811,-0.517990652,,4.020522242,0.965637556,-0.658817697,-1.54653055,0.145301413
3.212206256,1.8739636,0.044961811,-0.517990652,,4.021563034,1.124834566,-0.591458288,-1.389941324,0.142657898
3.212206256,1.8739636,0.044961811,-0.517990652,,4.023934293,1.789260574,-0.326830486,-0.742715026,0.126572389
3.212442125,2.014095927,0.039028004,-0.537163528,,4.024868714,1.956323866,-0.271184816,-0.579084359,0.118225648
3.212677994,2.154228254,0.03181614,-0.553506683,,4.025291873,1.815301558,-0.317630667,-0.716781217,0.125448559
3.212677994,2.154228254,0.03181614,-0.553506683,,4.027869288,1.47626979,-0.446037745,-1.044959644,0.136721579
3.217622313,2.83529911,-0.01956225,-0.590850496,,4.031500272,1.629725996,-0.385548004,-0.894516228,0.132737345
3.22202732,2.488400466,0.009651702,-0.579888764,,4.034522103,2.125690211,-0.223100718,-0.406906719,0.107675905
3.226911292,2.774764887,-0.014304245,-0.589209469,,4.03870168,2.413960316,-0.16960931,-0.110704933,0.086529692
3.233707213,0.066847073,0.005879459,-0.02658788,,4.042231156,2.216549338,-0.201666291,-0.31177686,0.101184645
3.233730336,0.200541218,0.016558683,-0.078012114,,4.043868091,2.329450569,-0.180746466,-0.195642199,0.092719767
3.233730336,0.200541218,0.016558683,-0.078012114,,4.044423752,0.705510198,-0.768861265,-1.795334021,0.151777762
3.233938002,0.333669206,0.025822764,-0.126864669,,4.044725216,0.344748701,-0.922527778,-2.154106937,0.168316271
3.233938002,0.333669206,0.025822764,-0.126864669,,4.04484192,0.181479084,-0.992385342,-2.316988593,0.180607151
3.234096061,0.467309333,0.03380825,-0.173515136,,4.045109456,0.867120948,-0.700159421,-1.635128591,0.147616408
3.234524979,0.60087047,0.040527658,-0.217718499,,4.047576789,1.221246709,-0.550598219,-1.285955896,0.141754722
3.235224755,0.734352618,0.046024899,-0.259460204,,4.048042618,1.966501071,-0.266705055,-0.55865855,0.118006569
3.235224755,0.734352618,0.046024899,-0.259460204,,4.050535556,1.379617588,-0.484868672,-1.130097823,0.139274805
3.236200271,2.714230664,-0.009082748,-0.587067879,,4.053627762,2.41978772,-0.167808893,-0.096788924,0.085413681
3.236200271,2.714230664,-0.009082748,-0.587067879,,4.054808142,2.110013029,-0.225654424,-0.413022236,0.108748983
3.236223743,0.867122624,0.050316076,-0.298548321,,4.056031635,2.260613034,-0.191799629,-0.260162003,0.097647499
3.236223743,0.867122624,0.050316076,-0.298548321,,4.05638061,2.28468227,-0.187323445,-0.235351179,0.095793526
3.237055198,2.221053919,0.028094549,-0.558036808,,4.058053448,0.539616105,-0.838870829,-1.955772943,0.157949499
3.237318076,1.000486403,0.053462988,-0.33536664,,4.058084373,0.511826611,-0.850669182,-1.983438044,0.159193004
3.23764028,2.555836817,0.004285437,-0.581631247,,4.059021724,1.721506002,-0.349940268,-0.793709554,0.13028076
3.238880911,1.133797611,0.055461094,-0.369697648,,4.059026379,0.013981728,-1.062926681,-2.480242275,0.197550261
3.240912249,1.267056248,0.056316138,-0.401530468,,4.059183802,1.031632399,-0.630208574,-1.467896632,0.144781178
3.240912249,1.267056248,0.056316138,-0.401530468,,4.059362028,1.058893447,-0.618691664,-1.440989104,0.144360613
3.243398332,1.39995662,0.056028365,-0.430788802,,4.059391909,2.461160052,-0.163161835,-0.050245045,0.081893677
3.243398332,1.39995662,0.056028365,-0.430788802,,4.066820685,1.539220465,-0.419940659,-0.968034343,0.13627897
3.245804217,1.533347555,0.054576318,-0.457672669,,4.066949621,1.873578173,-0.29563073,-0.641585061,0.123524702
3.247939424,1.668119037,0.05191041,-0.482311274,,4.067442458,1.565498452,-0.409510753,-0.94217241,0.135606265
3.249803951,1.804271066,0.047981753,-0.504612732,,4.068495936,0.691462547,-0.774083429,-1.801338711,0.15238688
3.249803951,1.804271066,0.047981753,-0.504612732,,4.068866317,0.358636022,-0.915086973,-2.13290322,0.167482545
3.25,2.875,-0.023932023,-0.586642836,,4.069103345,0.167455006,-0.996243981,-2.323936697,0.181861824
3.25325324,2.623273168,-0.001421256,-0.582539867,,4.069134385,0.880569194,-0.69395343,-1.613561957,0.147600727
3.25325324,2.623273168,-0.001421256,-0.582539867,,4.069251496,0.590648785,-0.816767749,-1.901376996,0.155900819
3.254528207,1.948216399,0.042506428,-0.525086399,,4.069396556,0.460296993,-0.871976918,-2.031255019,0.161728052
3.254528207,1.948216399,0.042506428,-0.525086399,,4.070137706,0.980732716,-0.651546693,-1.514193569,0.145760018
3.254764076,2.088348726,0.035778906,-0.542491965,,4.070149512,0.065583896,-1.039563277,-2.425528129,0.191808185
3.259288979,2.814465777,-0.018536325,-0.585455142,,4.07097371,1.108605735,-0.597557747,-1.387844236,0.143810085
3.261432402,2.287879583,0.023985934,-0.561707861,,4.071268949,1.207066681,-0.556191259,-1.290968135,0.142430027
3.261432402,2.287879583,0.023985934,-0.561707861,,4.074465829,1.392069612,-0.479328035,-1.108555162,0.13961679
3.265480445,2.670136534,-0.005601944,-0.582505015,,4.076871009,1.489403084,-0.439653663,-1.012533191,0.137719208
3.265480445,2.670136534,-0.005601944,-0.582505015,,4.07750894,2.41835393,-0.166069121,-0.085683385,0.084353011
3.266445189,2.362511722,0.018899213,-0.5670858,,4.078823688,0.769810869,-0.740617706,-1.720065411,0.150230208
3.268577959,2.753931554,-0.01315266,-0.583757675,,4.07896308,0.802663398,-0.726714278,-1.687406457,0.149413106
3.268577959,2.753931554,-0.01315266,-0.583757675,,4.079250353,0.279728346,-0.947802122,-2.208639091,0.172806618
3.271457976,2.437143861,0.01343931,-0.571585636,,4.079274077,0.246538599,-0.961843338,-2.241835124,0.175290608
3.271457976,2.437143861,0.01343931,-0.571585636,,4.079787552,1.612664872,-0.390652711,-0.891071854,0.134560834
3.27173913,0,0,0,,4.081912622,1.706793269,-0.35455124,-0.798294367,0.13140032
3.271762253,0.133694145,0.011522405,-0.052417425,,4.082288547,1.283693021,-0.524031064,-1.21161073,0.141538993
3.271762253,0.133694145,0.011522405,-0.052417425,,4.082890011,1.315886943,-0.510640395,-1.179819806,0.141064975
3.271846781,0.266893193,0.021575299,-0.102295387,,4.083712913,2.193761538,-0.203452944,-0.314642164,0.102292658
3.271846781,0.266893193,0.021575299,-0.102295387,,4.085354472,2.022733964,-0.247484545,-0.485846189,0.114803266
3.272177586,0.399950122,0.030267629,-0.14974687,,4.085750835,2.334319248,-0.176671035,-0.169200555,0.090889881
3.272177586,0.399950122,0.030267629,-0.14974687,,4.086513006,2.047309088,-0.240347341,-0.460800665,0.113129901
3.272335645,0.533590248,0.03769599,-0.194999819,,4.090123524,1.883755377,-0.290958322,-0.621236413,0.123367197
3.272335645,0.533590248,0.03769599,-0.194999819,,4.09392389,1.975113885,-0.261224848,-0.529215879,0.117980927
3.273035422,0.667072396,0.043867989,-0.237759909,,4.094347188,1.780202628,-0.326955952,-0.72109043,0.128622555
3.273035422,0.667072396,0.043867989,-0.237759909,,4.095958785,1.811116137,-0.315790135,-0.690056943,0.127211666
3.273647757,0.799991094,0.048805227,-0.277916321,,4.099358213,2.09038808,-0.227580505,-0.411574116,0.110019648
3.273647757,0.799991094,0.048805227,-0.277916321,,4.100676916,2.340146652,-0.174521936,-0.15542184,0.089794162
3.275033397,0.932612409,0.052566847,-0.315535205,,4.103998952,2.178084356,-0.205391118,-0.320643074,0.10318612
3.275033397,0.932612409,0.052566847,-0.315535205,,4.107389612,0.656181704,-0.787738059,-1.823664547,0.153683516
3.27612773,1.065976188,0.055178099,-0.35092637,,4.107400016,0.753134763,-0.746913764,-1.727033496,0.150825224
3.27612773,1.065976188,0.055178099,-0.35092637,,4.10748331,0.818627944,-0.719307362,-1.661834801,0.149231083
3.278159068,1.199234825,0.056639849,-0.383787511,,4.107681392,0.393986279,-0.897847978,-2.085646571,0.165353209
3.278159068,1.199234825,0.056639849,-0.383787511,,4.107718735,0.91496815,-0.678672578,-1.566052286,0.147285571
3.280083008,1.33174509,0.056939662,-0.414018098,,4.107908494,0.296214122,-0.938817429,-2.183524048,0.171594533
3.280083008,1.33174509,0.056939662,-0.414018098,,4.108075055,0.229890478,-0.966599288,-2.249964167,0.176546673
3.283131233,1.465035569,0.056092125,-0.44188623,,4.108339534,0.131918381,-1.007649587,-2.348153073,0.185064661
3.283131233,1.465035569,0.056092125,-0.44188623,,4.109400311,1.172177658,-0.5703061,-1.310987256,0.143518733
3.285537119,1.598426503,0.054048915,-0.467311549,,4.110413745,1.26685977,-0.530645973,-1.217335622,0.142277848
3.285537119,1.598426503,0.054048915,-0.467311549,,4.111297875,1.330668864,-0.504069401,-1.154254845,0.14137253
3.287070936,2.504580212,0.008139517,-0.573642738,,4.112893818,1.424309692,-0.465395507,-1.06170479,0.139832193
3.287401646,1.734578533,0.050716792,-0.490712265,,4.113750251,2.433980882,-0.161295406,-0.04980236,0.080984237
3.287401646,1.734578533,0.050716792,-0.490712265,,4.113881655,2.35678509,-0.170909467,-0.131145861,0.087760018
3.291043471,1.869271124,0.046199352,-0.511123818,,4.118435868,2.245877449,-0.1896174,-0.244045036,0.097213946
3.291043471,1.869271124,0.046199352,-0.511123818,,4.118760283,1.672243966,-0.366312132,-0.816319557,0.133463905
3.291666667,2.854166667,-0.023035509,-0.581110775,,4.118850141,2.274450278,-0.184079101,-0.214327027,0.094737991
3.296850159,2.022469198,0.039551538,-0.530991379,,4.119532234,2.397342283,-0.164970054,-0.085493838,0.083885977
3.296850159,2.022469198,0.039551538,-0.530991379,,4.1215212,1.762736998,-0.332116548,-0.72631736,0.129908554
3.297086027,2.162601525,0.031995862,-0.546598416,,4.123468756,1.823197597,-0.310141054,-0.665968173,0.127069745
3.297086027,2.162601525,0.031995862,-0.546598416,,4.126455757,1.911144924,-0.279714342,-0.57772892,0.122229157
3.297858133,2.709837424,-0.009619376,-0.579372064,,4.135847878,0.802157482,-0.725595923,-1.668547848,0.149723758
3.300955646,2.793632444,-0.017482948,-0.579885915,,4.135903975,0.769516831,-0.739299035,-1.701088356,0.150500125
3.300955646,2.793632444,-0.017482948,-0.579885915,,4.13656904,2.281368046,-0.181240953,-0.198088297,0.09346746
3.302683897,2.572016563,0.002474834,-0.574857094,,4.136629274,0.279640033,-0.943689934,-2.191515285,0.172675996
3.302683897,2.572016563,0.002474834,-0.574857094,,4.136772112,0.246506135,-0.957429377,-2.224760369,0.175141718
3.30979417,0.066847073,0.006009477,-0.026412634,,4.137386597,2.143012595,-0.211044467,-0.339962133,0.105453974
3.30979417,0.066847073,0.006009477,-0.026412634,,4.138688133,1.282466819,-0.523748813,-1.191032622,0.142483894
3.309878698,0.20004612,0.016879594,-0.077286442,,4.138970799,1.314081991,-0.510561425,-1.15974417,0.142053095
3.310086365,0.333174108,0.026340541,-0.125765829,,4.142517626,2.227266911,-0.191324633,-0.25108087,0.098088418
3.31041717,0.466231038,0.034462464,-0.171826129,,4.143544817,2.318712702,-0.174121441,-0.155518403,0.089769829
3.31041717,0.466231038,0.034462464,-0.171826129,,4.145513639,0.59042558,-0.81394869,-1.876955496,0.156014456
3.310846088,0.599792175,0.041329509,-0.215634662,,4.145618565,0.979662727,-0.650798614,-1.488370933,0.146470073
3.310846088,0.599792175,0.041329509,-0.215634662,,4.1456587,0.460073789,-0.868215549,-2.007587011,0.161701689
3.311458423,0.732710873,0.046929309,-0.256802318,,4.146132298,0.8794777,-0.692906451,-1.587921934,0.148152907
3.312457411,0.865480879,0.051328766,-0.295485268,,4.146290836,0.691234856,-0.771816971,-1.775804789,0.152634385
3.313843052,0.998102193,0.054554003,-0.331679403,,4.146454569,1.107535746,-0.597001528,-1.361093616,0.144748798
3.313843052,0.998102193,0.054554003,-0.331679403,,4.146661217,0.358408331,-0.910351662,-2.109346478,0.16736662
3.314911102,2.618879928,-0.001692276,-0.575025436,,4.146887701,0.065583896,-1.031383554,-2.403759905,0.191556243
3.315405887,1.131413401,0.056626869,-0.365597652,,4.147383858,0.167455006,-0.989275216,-2.301109148,0.181620939
3.315405887,1.131413401,0.056626869,-0.365597652,,4.148266862,1.205975186,-0.555639422,-1.262916019,0.143570451
3.317329827,1.263923666,0.057530978,-0.396845712,,4.149551629,1.776792856,-0.325662399,-0.700092365,0.129703835
3.319815909,1.396824038,0.057277125,-0.42569216,,4.149887587,1.806339946,-0.314857191,-0.670784723,0.128278674
3.321463231,2.229427189,0.028043163,-0.550606094,,4.15016404,1.388618614,-0.4794494,-1.081837936,0.141084562
3.321463231,2.229427189,0.028043163,-0.550606094,,4.150854004,2.371174599,-0.165520736,-0.096458548,0.084501008
3.322864135,1.530114518,0.055842337,-0.45209584,,4.151077774,1.48602008,-0.439401705,-0.985552531,0.139278578
3.322864135,1.530114518,0.055842337,-0.45209584,,4.153994317,1.609281868,-0.389729587,-0.863074194,0.136176855
3.324999341,1.664886,0.053149408,-0.476304337,,4.154737974,2.411776088,-0.159995745,-0.051268656,0.080415185
3.324999341,1.664886,0.053149408,-0.476304337,,4.156700727,0.539327383,-0.834776406,-1.924572278,0.158020653
3.326476018,2.304059328,0.023096217,-0.556391151,,4.156731652,0.511537889,-0.846316543,-1.952446391,0.159225326
3.327138306,2.665743294,-0.006043693,-0.574757245,,4.156820467,1.030248338,-0.629367459,-1.434031428,0.145814911
3.327138306,2.665743294,-0.006043693,-0.574757245,,4.156998693,1.057509386,-0.617903628,-1.406867535,0.145457591
3.328641166,1.79957859,0.049226154,-0.497803513,,4.157598712,2.270853211,-0.181272083,-0.198212003,0.093577853
3.33023582,2.749538314,-0.013903789,-0.575684817,,4.157610833,1.703342272,-0.352934536,-0.768931811,0.132975961
3.331488806,2.378691467,0.017750516,-0.561295438,,4.158289437,0.013981728,-1.051363719,-2.452499899,0.197231144
3.333333333,2.833333333,-0.022102404,-0.575418233,,4.160621087,1.874733628,-0.290038621,-0.598217582,0.124674208
3.333333333,2.833333333,-0.022102404,-0.575418233,,4.161259833,2.309855193,-0.173944358,-0.155550513,0.089748261
3.333333333,2.833333333,-0.022102404,-0.575418233,,4.162809273,1.534844452,-0.419301711,-0.932613893,0.138347836
3.333365423,1.943523923,0.043633847,-0.517808523,,4.163032472,1.966269887,-0.259396397,-0.5059084,0.118827078
3.336501593,2.453323606,0.012011034,-0.565307347,,4.163431046,1.561122439,-0.408687887,-0.906473881,0.137688201
3.336501593,2.453323606,0.012011034,-0.565307347,,4.165832417,2.235305846,-0.187532991,-0.230932278,0.096560186
3.33917211,2.096721997,0.036065309,-0.535674673,,4.168466796,2.081544081,-0.224587508,-0.387252616,0.110037641
3.33917211,2.096721997,0.036065309,-0.535674673,,4.16856902,2.362317091,-0.165064315,-0.096384301,0.084311062
3.347826087,0,0,0,,4.169984394,2.255576735,-0.183057595,-0.207746551,0.094499215
3.347826087,0,0,0,,4.170026099,0.865603279,-0.69827562,-1.593443105,0.148466816
3.347826087,0,0,0,,4.170302058,0.705034815,-0.765359882,-1.753995314,0.152211567
3.347910615,0.133199047,0.011722803,-0.05186721,,4.170855085,0.344446617,-0.914602458,-2.115982792,0.168105265
3.347995143,0.266398095,0.021982856,-0.101373582,,4.171557742,0.181451737,-0.981404756,-2.279943977,0.180226574
3.347995143,0.266398095,0.021982856,-0.101373582,,4.172084697,1.219122284,-0.549840215,-1.240784453,0.14364101
3.348325949,0.399455024,0.030850284,-0.148436076,,4.173475213,1.37464613,-0.484869868,-1.086275474,0.141609713
3.348656754,0.532511953,0.038399353,-0.193088599,,4.174496515,2.169062606,-0.201494069,-0.29494181,0.102353921
3.348656754,0.532511953,0.038399353,-0.193088599,,4.174748414,2.011293997,-0.244511118,-0.455195625,0.115522853
3.348656754,0.532511953,0.038399353,-0.193088599,,4.175767646,2.401261253,-0.159208155,-0.05108174,0.080031285
3.348656754,0.532511953,0.038399353,-0.193088599,,4.175906949,2.035869122,-0.237049876,-0.429871754,0.11361884
3.348656754,0.532511953,0.038399353,-0.193088599,,4.181223162,1.715182674,-0.347448094,-0.746873016,0.132817389
3.348656754,0.532511953,0.038399353,-0.193088599,,4.182875836,1.860533046,-0.29369627,-0.602124512,0.125649009
3.34926909,0.665430651,0.044678017,-0.235266676,,4.194136475,2.17583446,-0.198081036,-0.278109469,0.101143269
3.349881425,0.798349349,0.049730907,-0.275012903,,4.195156819,0.963162,-0.656994767,-1.487085084,0.146864114
3.349881425,0.798349349,0.049730907,-0.275012903,,4.195605364,0.606177417,-0.805578539,-1.844867558,0.155263877
3.351267065,0.930970664,0.053588017,-0.312210979,,4.195785958,0.443894428,-0.872353843,-2.008133964,0.162252301
3.352114553,2.520759957,0.006412694,-0.56682862,,4.196197612,1.122359011,-0.590187663,-1.327824829,0.144877392
3.352114553,2.520759957,0.006412694,-0.56682862,,4.196977237,2.315237299,-0.16953472,-0.131091033,0.087337088
3.352652706,1.063591978,0.056268951,-0.346969094,,4.197247023,0.081649438,-1.019538328,-2.373223015,0.189447654
3.352652706,1.063591978,0.056268951,-0.346969094,,4.199556087,1.468442778,-0.445614641,-0.982864075,0.140270872
3.352652706,1.063591978,0.056268951,-0.346969094,,4.202627816,2.355794492,-0.162591023,-0.085050535,0.082843157
3.352652706,1.063591978,0.056268951,-0.346969094,,4.203187071,1.621898984,-0.383190954,-0.829487373,0.136447051
3.352652706,1.063591978,0.056268951,-0.346969094,,4.204127733,2.288421243,-0.173489963,-0.155606103,0.089669543
3.352652706,1.063591978,0.056268951,-0.346969094,,4.207934123,1.946039355,-0.262809581,-0.505031086,0.120150816
3.354576646,1.196102243,0.05778663,-0.379230368,,4.208667602,0.799546399,-0.725067115,-1.646246501,0.149750905
3.356500586,1.328612508,0.058133112,-0.409041323,,4.208714857,0.772050502,-0.736492519,-1.673833568,0.150369696
3.356500586,1.328612508,0.058133112,-0.409041323,,4.210151843,0.277103459,-0.939437488,-2.171978785,0.17232309
3.359515994,2.705444184,-0.010265776,-0.57126269,,4.210272167,0.24919206,-0.95071942,-2.200137701,0.174382596
3.359548811,1.461902987,0.057305582,-0.436477912,,4.210358546,1.283842106,-0.522269697,-1.161643608,0.143149839
3.362597036,1.595193466,0.055263986,-0.46140309,,4.210596659,1.310474158,-0.511115204,-1.135070193,0.142827715
3.362597036,1.595193466,0.055263986,-0.46140309,,4.21456121,2.275552615,-0.174801407,-0.163675253,0.090434998
3.362597036,1.595193466,0.055263986,-0.46140309,,4.214699647,2.089551312,-0.218411996,-0.356463118,0.108513183
3.362597036,1.595193466,0.055263986,-0.46140309,,4.217201068,2.382255473,-0.157375743,-0.048863878,0.079065386
3.362597036,1.595193466,0.055263986,-0.46140309,,4.218690908,2.217630118,-0.186170528,-0.222231417,0.096149985
3.362597036,1.595193466,0.055263986,-0.46140309,,4.21905062,0.949287579,-0.662453311,-1.492427578,0.147045243
3.362613507,2.789239204,-0.018480307,-0.571413709,,4.219616585,0.619977375,-0.799053225,-1.823139406,0.154631669
3.362613507,2.789239204,-0.018480307,-0.571413709,,4.219797055,0.849887598,-0.703899145,-1.591871334,0.148689689
3.364341758,2.567623323,0.002278396,-0.567203755,,4.219802118,1.775937954,-0.32260745,-0.669385592,0.130420233
3.366238861,1.729886057,0.051952785,-0.483979154,,4.219979826,0.429932714,-0.876802326,-2.014651706,0.162774474
3.369880686,1.864578648,0.047354231,-0.503942572,,4.220015447,1.135506108,-0.584411474,-1.305762303,0.144792615
3.369880686,1.864578648,0.047354231,-0.503942572,,4.220018716,0.720912976,-0.757406445,-1.721408741,0.151584316
3.375,2.8125,-0.021131358,-0.569581294,,4.220085124,1.800827891,-0.313273733,-0.644487778,0.129154771
3.375687374,2.017776722,0.040546625,-0.523277376,,4.221122299,1.233846564,-0.543113509,-1.207216693,0.143759799
3.376568963,2.614486688,-0.002054415,-0.567138607,,4.221167234,0.328496262,-0.917888555,-2.116727641,0.168700683
3.381494061,2.170974796,0.032012174,-0.539101203,,4.221420906,0.095646169,-1.011448414,-2.352156918,0.187745308
3.381494061,2.170974796,0.032012174,-0.539101203,,4.221731634,0.197572653,-0.970604299,-2.248927342,0.178369751
3.381494061,2.170974796,0.032012174,-0.539101203,,4.222188459,2.23470595,-0.182158733,-0.202578544,0.094257682
3.381494061,2.170974796,0.032012174,-0.539101203,,4.222239214,1.358769159,-0.49077025,-1.08240104,0.142260793
3.381494061,2.170974796,0.032012174,-0.539101203,,4.22286726,1.454470295,-0.450943429,-0.987050503,0.140737949
3.381494061,2.170974796,0.032012174,-0.539101203,,4.2267994,1.633739386,-0.377701587,-0.807479506,0.136279588
3.381494061,2.170974796,0.032012174,-0.539101203,,4.229346837,1.026647598,-0.629956014,-1.411191266,0.146001273
3.385942532,0.066351975,0.006087,-0.02603946,,4.229511484,2.174777237,-0.194908567,-0.261280105,0.100011857
3.385942532,0.066351975,0.006087,-0.02603946,,4.229518305,1.727783574,-0.340553813,-0.712877257,0.132715786
3.38602706,0.199551022,0.017174791,-0.076545002,,4.229558412,1.059009457,-0.616397731,-1.378701753,0.145623343
3.386234727,0.33267901,0.026819296,-0.124636596,,4.229984431,0.541701805,-0.830759984,-1.898690619,0.157477603
3.386506848,2.245606935,0.027232363,-0.545283032,,4.230021142,0.508712622,-0.844225211,-1.931969879,0.158879276
3.386506848,2.245606935,0.027232363,-0.545283032,,4.230188871,1.931838773,-0.265983729,-0.508764979,0.121054235
3.386565533,0.46573594,0.035096658,-0.170291671,,4.230845794,1.844534452,-0.296607959,-0.595947964,0.126745606
3.386565533,0.46573594,0.035096658,-0.170291671,,4.232023252,0.016597847,-1.041736924,-2.429223526,0.196159623
3.387079756,0.59815043,0.042042276,-0.213313505,,4.234074984,1.529093121,-0.419939132,-0.908236546,0.139260687
3.387079756,0.59815043,0.042042276,-0.213313505,,4.234339607,2.096323167,-0.214740763,-0.339794733,0.107424339
3.387692091,0.731069128,0.047763946,-0.254067204,,4.234813098,1.560287979,-0.407154095,-0.876932061,0.13849518
3.388691079,0.863839134,0.052265895,-0.292324138,,4.241077928,2.000447005,-0.242652043,-0.434269884,0.11569406
3.388796168,2.661350054,-0.006588518,-0.566622762,,4.242453236,2.029620378,-0.233455446,-0.40395673,0.113221875
3.388796168,2.661350054,-0.006588518,-0.566622762,,4.24465111,2.334782845,-0.161297321,-0.084795438,0.082263007
3.39007672,0.996460448,0.055574935,-0.328081513,,4.245917398,2.254874605,-0.175519531,-0.168995479,0.090930476
3.39007672,0.996460448,0.055574935,-0.328081513,,4.257696885,0.914582176,-0.676346348,-1.513537716,0.147390063
3.391519635,2.320239073,0.022030779,-0.55058229,,4.257711405,1.010177135,-0.636503638,-1.41737078,0.146099147
3.391519635,2.320239073,0.022030779,-0.55058229,,4.2578328,1.074616506,-0.609548553,-1.352588268,0.145377289
3.391823465,1.12828082,0.057698539,-0.361180553,,4.258142743,0.655156853,-0.783371568,-1.77499572,0.1531588
3.391823465,1.12828082,0.057698539,-0.361180553,,4.258176557,1.169204651,-0.56987823,-1.257563355,0.144431847
3.391893681,2.745145074,-0.014781686,-0.567194829,,4.25848839,0.558083873,-0.822944153,-1.872982635,0.156536222
3.391893681,2.745145074,-0.014781686,-0.567194829,,4.258741923,0.492138534,-0.84966957,-1.939602095,0.159318005
3.393747405,1.260791085,0.058660102,-0.391999712,,4.259144541,0.394583771,-0.888963014,-2.038228228,0.164262861
3.396233487,1.393691457,0.05843997,-0.420407064,,4.260279801,0.131238167,-0.993553804,-2.304906627,0.183744887
3.396532423,2.394871212,0.016408602,-0.554986151,,4.26042317,1.420479547,-0.464433831,-1.005342334,0.141491328
3.396532423,2.394871212,0.016408602,-0.554986151,,4.260591682,2.113308723,-0.207565252,-0.309172776,0.105026187
3.399281712,1.526981936,0.057010823,-0.446361296,,4.260720309,0.033213505,-1.031930237,-2.404321649,0.193841786
3.399281712,1.526981936,0.057010823,-0.446361296,,4.261747909,1.512506248,-0.426142675,-0.912980512,0.139767978
3.40154521,2.469503351,0.010369151,-0.558480202,,4.262843527,1.574343838,-0.400663324,-0.850861533,0.138259998
3.40154521,2.469503351,0.010369151,-0.558480202,,4.264752339,1.664821476,-0.363940994,-0.759819498,0.135394966
3.40154521,2.469503351,0.010369151,-0.558480202,,4.265768027,2.037659313,-0.228950725,-0.384312846,0.112045539
3.40154521,2.469503351,0.010369151,-0.558480202,,4.265795262,2.31370397,-0.162385252,-0.095909822,0.083158563
3.40154521,2.469503351,0.010369151,-0.558480202,,4.26742251,1.899659415,-0.274488806,-0.523486234,0.123080261
3.40154521,2.469503351,0.010369151,-0.558480202,,4.26749676,1.983589353,-0.245897913,-0.438560632,0.116685651
3.403836556,1.660193524,0.054362528,-0.46966512,,4.271559409,2.355076303,-0.155139057,-0.048324689,0.0779674
3.403836556,1.660193524,0.054362528,-0.46966512,,4.276228738,2.300835342,-0.163427553,-0.104042482,0.083911364
3.404280174,2.76840587,-0.017411095,-0.565484795,,4.284662331,2.154280901,-0.194277713,-0.254401288,0.099890992
3.407478381,1.794886115,0.050382227,-0.490703634,,4.285876205,1.058514209,-0.61599365,-1.358392506,0.145382768
3.412202638,1.938831447,0.044672586,-0.510199298,,4.285966384,1.026436698,-0.629391045,-1.39068617,0.145726476
3.413772415,2.516366717,0.006285979,-0.559065153,,4.287088662,0.541738326,-0.828426309,-1.880344955,0.156831823
3.413772415,2.516366717,0.006285979,-0.559065153,,4.287305484,0.508782171,-0.84168665,-1.913685863,0.158210594
3.416666667,2.791666667,-0.02012181,-0.563614024,,4.289566622,0.016615658,-1.035074749,-2.413132327,0.195239395
3.418009325,2.092029521,0.036902575,-0.527497781,,4.28967549,1.527627498,-0.419256442,-0.885951636,0.139460908
3.418009325,2.092029521,0.036902575,-0.527497781,,4.290030117,2.191117517,-0.184623309,-0.213047977,0.095601547
3.421173855,2.701050944,-0.011029192,-0.562763983,,4.290032994,1.55827023,-0.406559394,-0.855139184,0.138719593
3.421173855,2.701050944,-0.011029192,-0.562763983,,4.290598904,2.075414885,-0.21530199,-0.333195761,0.107814517
3.423913043,0,0,0,,4.292617557,2.022874264,-0.231100355,-0.386182363,0.112767435
3.424058977,0.132703949,0.01190413,-0.051308176,,4.293527668,2.208193349,-0.180253998,-0.193239815,0.093491175
3.424058977,0.132703949,0.01190413,-0.051308176,,4.293591271,2.274420151,-0.166291201,-0.122922917,0.08580599
3.424143505,0.265902996,0.022356325,-0.100429504,,4.295577053,0.849826783,-0.702538895,-1.565577793,0.148115216
3.424143505,0.265902996,0.022356325,-0.100429504,,4.295696315,1.232649329,-0.542865969,-1.179361709,0.143677484
3.424474311,0.398959926,0.031385912,-0.147087771,,4.295721598,1.997977678,-0.238792867,-0.410109361,0.114936213
3.424474311,0.398959926,0.031385912,-0.147087771,,4.295798713,0.720852162,-0.755462091,-1.696022856,0.150884214
3.424716595,0.531572075,0.039048323,-0.191176727,,4.29608829,1.134284811,-0.584174873,-1.278231721,0.14457227
3.424716595,0.531572075,0.039048323,-0.191176727,,4.296353683,0.949225543,-0.661402698,-1.464837406,0.146570384
3.425502758,0.663788906,0.045418832,-0.23270771,,4.29681323,1.357571925,-0.490293433,-1.053386553,0.142343813
3.425502758,0.663788906,0.045418832,-0.23270771,,4.296919649,0.619915339,-0.796476592,-1.79792113,0.153826804
3.425999619,2.563230083,0.001992495,-0.559207718,,4.297667053,0.328567443,-0.912926965,-2.093408302,0.167673455
3.425999619,2.563230083,0.001992495,-0.559207718,,4.298017179,0.430005326,-0.872700515,-1.990251286,0.161802152
3.426115093,0.796707604,0.050580393,-0.272023904,,4.298231453,0.197643834,-0.96420849,-2.226373451,0.177252454
3.426115093,0.796707604,0.050580393,-0.272023904,,4.298940103,1.453248998,-0.45009371,-0.956519735,0.140931346
3.427500733,0.929328918,0.054527622,-0.308779834,,4.299458259,0.095718781,-1.003580211,-2.329779926,0.186538833
3.427500733,0.929328918,0.054527622,-0.308779834,,4.301068244,2.234378269,-0.173576593,-0.161558081,0.09003126
3.428666714,1.061309322,0.057267971,-0.342934928,,4.301320542,1.630267124,-0.376650244,-0.778105817,0.136611505
3.428666714,1.061309322,0.057267971,-0.342934928,,4.302571192,1.724379724,-0.33865099,-0.683196696,0.132962638
3.430994223,1.192969661,0.058843917,-0.374527998,,4.303898681,1.841130602,-0.293407545,-0.565202034,0.126689128
3.430994223,1.192969661,0.058843917,-0.374527998,,4.304710013,1.92836651,-0.261626365,-0.476589575,0.120549133
3.432918163,1.325479926,0.05923624,-0.403893242,,4.306691211,0.799467734,-0.723038152,-1.612708002,0.148942021
3.432918163,1.325479926,0.05923624,-0.403893242,,4.306738466,0.771971837,-0.73430375,-1.640547326,0.14952558
3.433560348,2.72431174,-0.013627546,-0.56117815,,4.306822183,1.282293449,-0.521868351,-1.125028483,0.143130687
3.435966389,1.458770405,0.058428684,-0.430870435,,4.307060297,1.308925501,-0.510652127,-1.098135641,0.142854081
3.435966389,1.458770405,0.058428684,-0.430870435,,4.309106563,0.277195534,-0.93233136,-2.142204356,0.17094771
3.438226824,2.610093448,-0.002515526,-0.558897875,,4.309226886,0.249284135,-0.943220797,-2.170575937,0.172982287
3.438226824,2.610093448,-0.002515526,-0.558897875,,4.310889805,2.333700173,-0.153725687,-0.049770171,0.077348187
3.439063876,1.590551297,0.056408617,-0.455058499,,4.313216465,2.062960225,-0.216747015,-0.33468154,0.108330883
3.439063876,1.590551297,0.056408617,-0.455058499,,4.314298132,1.771534976,-0.319492608,-0.630420069,0.130620339
3.444813152,2.218746326,0.029191423,-0.536734326,,4.314581137,1.796424913,-0.309799854,-0.605233667,0.1292652
3.444813152,2.218746326,0.029191423,-0.536734326,,4.31971155,1.120720525,-0.589644936,-1.282986148,0.144481709
3.445076076,1.725193581,0.053094738,-0.476978605,,4.320155169,0.962922305,-0.6554114,-1.44244816,0.146123027
3.445076076,1.725193581,0.053094738,-0.476978605,,4.321012003,0.606146145,-0.801221469,-1.804041847,0.153934787
3.445946841,2.747572537,-0.016307964,-0.559434338,,4.321734982,2.128413577,-0.197047338,-0.262354581,0.101070456
3.448717902,1.859886172,0.048415507,-0.496457811,,4.322078608,0.444025626,-0.865908691,-1.968508218,0.160695131
3.448717902,1.859886172,0.048415507,-0.496457811,,4.322465794,1.465986868,-0.444333483,-0.933813598,0.140608613
3.44982594,2.293378465,0.023984975,-0.54206157,,4.323275488,2.318423697,-0.154704105,-0.059480319,0.078224866
3.450454029,2.656956814,-0.007242898,-0.558124171,,4.323757873,0.081737054,-1.006467052,-2.337123261,0.187480376
3.450454029,2.656956814,-0.007242898,-0.558124171,,4.32422446,1.616727006,-0.381465422,-0.781524229,0.136966994
3.450454029,2.656956814,-0.007242898,-0.558124171,,4.328486109,1.940486976,-0.255478734,-0.452722065,0.119174512
3.450454029,2.656956814,-0.007242898,-0.558124171,,4.332488035,2.27992706,-0.160492078,-0.095992285,0.082331763
3.450454029,2.656956814,-0.007242898,-0.558124171,,4.342159716,2.228131732,-0.169972351,-0.146310245,0.088131757
3.450454029,2.656956814,-0.007242898,-0.558124171,,4.343165053,2.169401703,-0.183799678,-0.208155447,0.095259046
3.45049851,2.489054472,0.008339935,-0.553292438,,4.344352542,2.115958918,-0.197954863,-0.263729847,0.101430857
3.45049851,2.489054472,0.008339935,-0.553292438,,4.344621177,1.21635233,-0.54928748,-1.176714214,0.143378407
3.454524589,2.013084246,0.041446109,-0.515215658,,4.345352771,0.865462578,-0.695255142,-1.532390813,0.14716635
3.454524589,2.013084246,0.041446109,-0.515215658,,4.34562873,0.704894113,-0.76065459,-1.695555139,0.150549978
3.454838727,2.368010604,0.018334938,-0.546486287,,4.345719016,2.318056858,-0.151900948,-0.047477572,0.076371214
3.458333333,2.770833333,-0.019073643,-0.557529208,,4.346011694,1.371876177,-0.483653906,-1.018868774,0.141820168
3.459851514,2.442642742,0.01224165,-0.549992442,,4.347317031,2.189672592,-0.178262595,-0.184506309,0.092558987
3.459851514,2.442642742,0.01224165,-0.549992442,,4.347847158,0.344611304,-0.903490254,-2.061850164,0.16575326
3.462029489,0.066351975,0.006198144,-0.025854534,,4.348549814,0.181616424,-0.966155021,-2.22801883,0.177615461
3.462175422,0.199055924,0.017442019,-0.075788735,,4.350240317,1.707307433,-0.343401026,-0.678557314,0.133414766
3.462175422,0.199055924,0.017442019,-0.075788735,,4.351394059,2.279618041,-0.158136698,-0.086009529,0.080888265
3.462383089,0.332183912,0.027255462,-0.123478474,,4.351892991,1.852657806,-0.285918295,-0.530723788,0.125373682
3.462383089,0.332183912,0.027255462,-0.123478474,,4.357968775,1.056294416,-0.61620596,-1.333976795,0.144565737
3.462625373,0.464796062,0.035649214,-0.168567044,,4.358044741,1.029272898,-0.627445077,-1.361401108,0.144830215
3.462725714,2.535917838,0.004045614,-0.55350115,,4.360250815,1.528855943,-0.417146889,-0.854257024,0.139044693
3.462840522,2.680217611,-0.009802159,-0.556664242,,4.360309299,0.539569077,-0.82635502,-1.859159907,0.15570197
3.462840522,2.680217611,-0.009802159,-0.556664242,,4.360491945,0.511807405,-0.837326864,-1.887410504,0.156845501
3.463139597,0.597210552,0.042719803,-0.211161316,,4.360551971,1.554668828,-0.4062831,-0.828041422,0.138433929
3.463393352,2.151684782,0.033593445,-0.528754148,,4.36106574,2.227822713,-0.167643369,-0.136489811,0.086852263
3.463393352,2.151684782,0.033593445,-0.528754148,,4.363323962,0.013996731,-1.027551354,-2.395312028,0.193951989
3.463925759,0.729427382,0.048522537,-0.251258567,,4.366419931,2.023591388,-0.223727523,-0.34858107,0.110523796
3.463925759,0.729427382,0.048522537,-0.251258567,,4.366683559,2.054887827,-0.213667173,-0.315988454,0.107234358
3.464924747,0.862197389,0.053120444,-0.289069199,,4.368244437,1.202788044,-0.554798463,-1.181287312,0.143161489
3.464924747,0.862197389,0.053120444,-0.289069199,,4.368985852,1.105578845,-0.595549534,-1.27978648,0.14394286
3.466090728,0.994177792,0.056492333,-0.324212641,,4.36903472,2.002618952,-0.230425787,-0.368944622,0.112538107
3.467837473,1.125998163,0.058682582,-0.356857521,,4.369154257,0.87915934,-0.689257094,-1.510147534,0.14653331
3.470164982,1.257658503,0.059694874,-0.386999193,,4.369342183,0.978829388,-0.64823209,-1.408598627,0.145183728
3.470164982,1.257658503,0.059694874,-0.386999193,,4.369537385,1.384614046,-0.477976897,-0.996295148,0.141380764
3.472651065,1.390558875,0.059507909,-0.414940801,,4.369721085,0.691124919,-0.765562077,-1.701576317,0.150472855
3.472651065,1.390558875,0.059507909,-0.414940801,,4.369760559,2.189305752,-0.175551215,-0.172989797,0.091186178
3.474952919,2.582781203,-0.000471999,-0.553255007,,4.370014583,2.154616654,-0.184366238,-0.209688652,0.095514624
3.475227014,2.703478407,-0.012444012,-0.555048688,,4.370774801,1.480228893,-0.437459706,-0.89891452,0.139909273
3.475227014,2.703478407,-0.012444012,-0.555048688,,4.371152415,0.590569888,-0.805710922,-1.803667329,0.153569492
3.475748552,1.522339767,0.058108843,-0.44013681,,4.371908587,0.358631604,-0.896595939,-2.040233852,0.164399606
3.480303396,1.655551355,0.055446256,-0.462976694,,4.372009152,0.460348598,-0.857036251,-1.936308579,0.158939442
3.486315596,1.790193639,0.051439427,-0.483324775,,4.372187427,1.601309034,-0.38640262,-0.775748448,0.137034857
3.486315596,1.790193639,0.051439427,-0.483324775,,4.372849429,0.167634696,-0.969358534,-2.23527641,0.178269447
3.487180124,2.629644569,-0.005218622,-0.55254288,,4.373144235,1.693767315,-0.34796455,-0.681734458,0.133741521
3.487180124,2.629644569,-0.005218622,-0.55254288,,4.374261665,0.065654271,-1.007264064,-2.339323542,0.187999622
3.487613507,2.726739204,-0.015171364,-0.553274529,,4.375669086,1.864778271,-0.279631871,-0.506945472,0.124119974
3.487613507,2.726739204,-0.015171364,-0.553274529,,4.378474238,1.278617219,-0.522743118,-1.100238083,0.14236171
3.491039853,1.934138971,0.045611874,-0.502271996,,4.378756905,1.310232391,-0.509373463,-1.068007172,0.142064283
3.491039853,1.934138971,0.045611874,-0.502271996,,4.378948711,1.956512713,-0.24545195,-0.411485033,0.116609457
3.49945181,2.508605592,0.006114267,-0.547699043,,4.37951171,0.801961939,-0.720560313,-1.585254476,0.147695756
3.49945181,2.508605592,0.006114267,-0.547699043,,4.379567807,0.769321288,-0.733787802,-1.618530072,0.148371293
3.499908616,2.072739507,0.038496596,-0.517146676,,4.382273494,2.272970639,-0.155331521,-0.076251913,0.079210605
3.5,0,0,0,,4.38260763,0.27986891,-0.926119432,-2.117555835,0.169258001
3.5,2.75,-0.017987373,-0.551338733,,4.382750467,0.246735013,-0.938697827,-2.151422645,0.17165082
3.5,2.75,-0.017987373,-0.551338733,,4.38444668,1.76584808,-0.318036684,-0.603395116,0.130155336
3.500145934,0.132703949,0.012107011,-0.050926925,,4.384681396,2.169630125,-0.178600579,-0.186011106,0.092729851
3.500291867,0.265407898,0.022692782,-0.099464479,,4.384782639,1.79539517,-0.306156348,-0.573204826,0.128488268
3.500291867,0.265407898,0.022692782,-0.099464479,,4.38663471,2.299030755,-0.149779797,-0.045461575,0.075255196
3.500291867,0.265407898,0.022692782,-0.099464479,,4.389750468,2.232928757,-0.162724818,-0.115482679,0.084027155
3.500291867,0.265407898,0.022692782,-0.099464479,,4.390754208,2.095860005,-0.198397448,-0.260807853,0.101512667
3.500291867,0.265407898,0.022692782,-0.099464479,,4.40393364,2.206388763,-0.166919413,-0.13637749,0.086534691
3.500291867,0.265407898,0.022692782,-0.099464479,,4.406505609,1.169023524,-0.568685344,-1.200925133,0.142726056
3.500534152,0.398020048,0.031841469,-0.14555482,,4.406517643,1.262514921,-0.52930599,-1.105500743,0.141991064
3.500776436,0.530632198,0.03963354,-0.189216103,,4.406684486,1.325353642,-0.502691161,-1.041343771,0.141423772
3.500776436,0.530632198,0.03963354,-0.189216103,,4.407164861,1.417321271,-0.463590062,-0.947418584,0.140346895
3.501562599,0.662849028,0.046114067,-0.230303446,,4.407222351,0.914073996,-0.674398052,-1.461164478,0.145240345
3.502348761,0.795065859,0.051347074,-0.268953703,,4.407766689,0.818221501,-0.713422732,-1.55899156,0.146779637
3.502348761,0.795065859,0.051347074,-0.268953703,,4.40816808,0.752975742,-0.739745407,-1.625592051,0.148117583
3.502348761,0.795065859,0.051347074,-0.268953703,,4.408808385,0.656265197,-0.778386626,-1.724325593,0.150622672
3.502348761,0.795065859,0.051347074,-0.268953703,,4.41000628,1.660867282,-0.360173114,-0.698259202,0.134487577
3.502348761,0.795065859,0.051347074,-0.268953703,,4.410531664,0.39433227,-0.880638354,-1.99195628,0.161456855
3.502348761,0.795065859,0.051347074,-0.268953703,,4.41117119,0.296512547,-0.917844181,-2.092018249,0.167421176
3.503514742,0.927046262,0.055359427,-0.305086102,,4.41159678,0.230137165,-0.942758634,-2.159967037,0.17219431
3.504507188,2.659384277,-0.008550058,-0.55046015,,4.411636148,1.749774472,-0.323144856,-0.606952308,0.130526274
3.504507188,2.659384277,-0.008550058,-0.55046015,,4.412213317,0.132059938,-0.979050443,-2.260463523,0.180463494
3.504680722,1.059026665,0.058173637,-0.338781828,,4.413007477,1.809783494,-0.298680144,-0.545074235,0.127070554
3.504680722,1.059026665,0.058173637,-0.338781828,,4.415424881,1.8979839,-0.263905255,-0.45358219,0.120653915
3.507008232,1.190687005,0.059804944,-0.369903551,,4.416502685,2.189814368,-0.169255238,-0.147407675,0.087853905
3.508132244,2.266517856,0.025919503,-0.533372229,,4.422110441,2.118385738,-0.18786753,-0.220651326,0.096994556
3.508132244,2.266517856,0.025919503,-0.533372229,,4.424296788,2.251958992,-0.153763312,-0.075898269,0.078464796
3.508804814,2.462193863,0.010175677,-0.544655576,,4.434286757,1.309823524,-0.509024472,-1.046075576,0.140970025
3.509335741,1.322347345,0.060240287,-0.398581617,,4.434402581,1.278599976,-0.522270247,-1.078002685,0.141240205
3.509335741,1.322347345,0.060240287,-0.398581617,,4.434465501,2.131032816,-0.1825911,-0.200679582,0.094565654
3.509335741,1.322347345,0.060240287,-0.398581617,,4.436176382,0.802295039,-0.719311861,-1.565626395,0.146397329
3.509335741,1.322347345,0.060240287,-0.398581617,,4.436521675,0.769689931,-0.732407718,-1.598952322,0.147059165
3.509335741,1.322347345,0.060240287,-0.398581617,,4.439113127,1.764065923,-0.315794677,-0.579370214,0.129172568
3.509335741,1.322347345,0.060240287,-0.398581617,,4.43996151,0.280100557,-0.922035173,-2.100341546,0.167783144
3.511679014,2.555468958,0.001594173,-0.547518348,,4.440148498,1.794527855,-0.303193263,-0.547680223,0.127387218
3.512433229,1.454128237,0.05946942,-0.424780577,,4.440244262,0.246859073,-0.934372045,-2.134423548,0.170161082
3.513145031,2.341149995,0.020251366,-0.537809464,,4.440993051,2.271851585,-0.147200894,-0.044830187,0.073979987
3.515530716,1.585909128,0.057454368,-0.448504902,,4.442909431,2.057266833,-0.204188878,-0.274315901,0.103478179
3.515530716,1.585909128,0.057454368,-0.448504902,,4.44400907,1.105866772,-0.594808919,-1.251391079,0.142331515
3.516893681,2.682645074,-0.011231838,-0.548817899,,4.444205421,1.478951667,-0.436687196,-0.868787961,0.138598262
3.518157818,2.415782134,0.014114298,-0.54132013,,4.444365402,0.979117315,-0.647261122,-1.381351147,0.143521181
3.518157818,2.415782134,0.014114298,-0.54132013,,4.444443852,1.383311149,-0.47762284,-0.966659265,0.13996834
3.521542916,1.720551412,0.054105601,-0.469930851,,4.444775512,1.203081758,-0.55408394,-1.151345394,0.141570523
3.523906219,2.602332324,-0.003163681,-0.546870039,,4.445618047,1.600031807,-0.384774396,-0.744217917,0.135779035
3.523906219,2.602332324,-0.003163681,-0.546870039,,4.445685332,0.879453054,-0.687950117,-1.483195231,0.144804347
3.526712444,2.199456313,0.030650825,-0.526007936,,4.447331424,0.590999865,-0.802868488,-1.778788916,0.151762931
3.527555117,1.855193696,0.049372942,-0.488683383,,4.44743118,0.691563539,-0.763289279,-1.675503537,0.148661356
3.527555117,1.855193696,0.049372942,-0.488683383,,4.448050702,1.692464419,-0.34535301,-0.648486558,0.132430464
3.527555117,1.855193696,0.049372942,-0.488683383,,4.448188161,0.460778576,-0.85323764,-1.9122487,0.15708153
3.527555117,1.855193696,0.049372942,-0.488683383,,4.448620301,2.23100492,-0.154821202,-0.085285987,0.079329546
3.527555117,1.855193696,0.049372942,-0.488683383,,4.448707913,2.155183477,-0.173865628,-0.167256996,0.090280258
3.527555117,1.855193696,0.049372942,-0.488683383,,4.449618682,0.359070224,-0.89181444,-2.016314193,0.162448239
3.529280174,2.70590587,-0.014002141,-0.547016671,,4.450999854,0.065654271,-0.999253474,-2.317898673,0.185848189
3.53642388,1.993794232,0.043024107,-0.504881164,,4.451129942,0.167634696,-0.962580915,-2.212782413,0.176184822
3.538116445,0.066351975,0.006298992,-0.025664565,,4.453426985,1.867205092,-0.272900109,-0.466539149,0.122011864
3.538262379,0.199055924,0.017718612,-0.075199563,,4.45501347,1.056666857,-0.615159722,-1.297844544,0.142453912
3.538262379,0.199055924,0.017718612,-0.075199563,,4.455089436,1.02964534,-0.626336326,-1.32558876,0.142703271
3.53844293,0.331244034,0.027614155,-0.122140535,,4.455174582,1.958891719,-0.237333628,-0.370821333,0.113837882
3.53844293,0.331244034,0.027614155,-0.122140535,,4.455235437,1.527203814,-0.415762348,-0.814569991,0.13738765
3.538685214,0.463856184,0.036141423,-0.16680326,,4.455536593,1.553016699,-0.404666852,-0.787970808,0.136791022
3.539199438,0.596270674,0.043325761,-0.208953535,,4.458849042,0.540125266,-0.822222008,-1.827404511,0.15334203
3.5399856,0.728487505,0.049225299,-0.248590455,,4.459031688,0.512363593,-0.832932631,-1.855883183,0.154470947
3.5399856,0.728487505,0.049225299,-0.248590455,,4.461189346,2.214430526,-0.156823774,-0.096412411,0.080669542
3.540938756,0.859914732,0.053863661,-0.285559522,,4.46258702,0.013996731,-1.016189359,-2.368023299,0.191086058
3.540938756,0.859914732,0.053863661,-0.285559522,,4.465020292,2.026668701,-0.211859281,-0.295015124,0.106016696
3.541233283,2.632072032,-0.006502382,-0.544816558,,4.46763508,2.005696265,-0.218941394,-0.31565289,0.108309507
3.541666667,2.729166667,-0.016864059,-0.545053641,,4.467695508,1.370228858,-0.482951106,-0.970507563,0.139495242
3.542104736,0.991895136,0.05731458,-0.320239226,,4.468265281,1.216631518,-0.548199132,-1.12832738,0.14082166
3.543851481,1.123715507,0.059567735,-0.352407611,,4.469617145,0.866036888,-0.693006785,-1.488720482,0.144348828
3.545292643,2.132394769,0.03509369,-0.518095857,,4.471196815,1.704503279,-0.339226683,-0.625345735,0.131303242
3.545292643,2.132394769,0.03509369,-0.518095857,,4.471315738,0.705643271,-0.757087604,-1.653199914,0.147625599
3.546178991,1.255375847,0.060624866,-0.38206073,,4.473871128,0.345245059,-0.895543244,-2.023281584,0.162579066
3.546178991,1.255375847,0.060624866,-0.38206073,,4.475262065,0.18172093,-0.955438226,-2.191378886,0.174254316
3.548405109,2.528156713,0.003678719,-0.541695288,,4.476290093,1.854354016,-0.276307889,-0.468534904,0.12226271
3.548405109,2.528156713,0.003678719,-0.541695288,,4.480841175,2.250495778,-0.145568182,-0.045934182,0.07324216
3.549117905,1.385916706,0.060481808,-0.40899938,,4.483254233,2.174213712,-0.163682518,-0.128015181,0.08479433
3.549117905,1.385916706,0.060481808,-0.40899938,,4.489574725,2.068464359,-0.194585658,-0.238067628,0.099409587
3.552215392,1.517697598,0.059102928,-0.433723327,,4.492356883,1.463031841,-0.442733298,-0.864577059,0.137514918
3.556770236,1.650909186,0.056427063,-0.456070516,,4.493287319,1.12138668,-0.587949223,-1.217015644,0.140758354
3.557758114,2.481744984,0.007910494,-0.538920645,,4.493730938,0.96358846,-0.653050757,-1.37977761,0.142253458
3.558560348,2.66181174,-0.009992081,-0.542496509,,4.494115549,1.61377198,-0.377392966,-0.70824585,0.134025976
3.558560348,2.66181174,-0.009992081,-0.542496509,,4.495762013,2.230820151,-0.147614021,-0.059227925,0.074837271
3.560632314,2.575020079,-0.001082561,-0.5411129,,4.497261841,0.607140953,-0.79487828,-1.746286855,0.149766712
3.560632314,2.575020079,-0.001082561,-0.5411129,,4.498328446,0.445020435,-0.856806412,-1.913110464,0.156378974
3.562782436,1.78555147,0.052364264,-0.475902035,,4.500863136,2.116590305,-0.177629077,-0.180674151,0.091956591
3.562782436,1.78555147,0.052364264,-0.475902035,,4.501301445,0.081737054,-0.988478775,-2.287353887,0.182548566
3.567111118,2.435333255,0.012013675,-0.53585044,,4.501929784,2.081111437,-0.188750101,-0.218075229,0.096908298
3.570946841,2.685072537,-0.012801393,-0.540671252,,4.504844368,1.94599111,-0.237209922,-0.359038896,0.113054089
3.571451335,2.314289387,0.022151972,-0.528978479,,4.505320652,1.308217067,-0.509077943,-1.019234539,0.138908938
3.571451335,2.314289387,0.022151972,-0.528978479,,4.50541822,1.281914912,-0.520276068,-1.046409149,0.139128439
3.572939144,1.914848958,0.047146533,-0.491974024,,4.508311157,1.764070946,-0.311946667,-0.546317038,0.127128917
3.572939144,1.914848958,0.047146533,-0.491974024,,4.508909457,0.800812631,-0.718475051,-1.542640001,0.144297894
3.576086957,0,0,0,,4.509183335,1.789731529,-0.300948273,-0.519309208,0.125584345
3.57623289,0.132703949,0.012289163,-0.050535392,,4.509200325,0.773346675,-0.729384786,-1.570909324,0.144856624
3.57623289,0.132703949,0.012289163,-0.050535392,,4.513536194,0.277896448,-0.917749023,-2.081080413,0.165697362
3.576307953,0.265026687,0.022997415,-0.098521717,,4.513774379,0.249894421,-0.927854425,-2.109946047,0.167678478
3.576307953,0.265026687,0.022997415,-0.098521717,,4.514392812,2.175061688,-0.158641696,-0.110000395,0.081927548
3.576464123,2.388921525,0.015981992,-0.532487534,,4.514920838,2.230324373,-0.144620048,-0.048986696,0.072930635
3.576464123,2.388921525,0.015981992,-0.532487534,,4.515608539,1.44994955,-0.448030115,-0.868239851,0.136925161
3.576593992,0.39708017,0.032241161,-0.143991611,,4.516231081,1.355956348,-0.488552668,-0.96539523,0.13806839
3.576593992,0.39708017,0.032241161,-0.143991611,,4.516688744,1.232581196,-0.541103488,-1.0930885,0.139112052
3.576836277,0.52969232,0.040150115,-0.18720996,,4.516777089,1.13493644,-0.582116531,-1.19423407,0.139844824
3.576836277,0.52969232,0.040150115,-0.18720996,,4.517261661,1.625810841,-0.371430835,-0.685305296,0.132855444
3.577622439,0.66190915,0.046730004,-0.227836896,,4.517662752,0.950172295,-0.658224034,-1.385227645,0.141615836
3.577622439,0.66190915,0.046730004,-0.227836896,,4.518577428,1.717337798,-0.331540929,-0.589841854,0.129178991
3.577959379,2.604759787,-0.004423046,-0.539092047,,4.519478976,0.851142977,-0.698173155,-1.487056286,0.143013324
3.578174818,0.793679254,0.052029848,-0.265893413,,4.52084335,0.722308799,-0.749262288,-1.619812702,0.145653606
3.578174818,0.793679254,0.052029848,-0.265893413,,4.521146399,0.621220685,-0.788640396,-1.72417605,0.148534401
3.57952875,0.924763606,0.056095034,-0.301301677,,4.522580892,0.431195269,-0.860786649,-1.920037598,0.156287267
3.57952875,0.924763606,0.056095034,-0.301301677,,4.52266854,1.837703538,-0.279721769,-0.462917086,0.121814818
3.58069473,1.056744009,0.058978322,-0.334516855,,4.524292277,0.32948276,-0.898263042,-2.024629038,0.16195129
3.58069473,1.056744009,0.058978322,-0.334516855,,4.52540953,0.198134038,-0.94546066,-2.160149237,0.171248161
3.581807907,2.053449494,0.039998692,-0.506521194,,4.525433568,0.095823287,-0.981223084,-2.26609973,0.180300055
3.58302224,1.188404349,0.060661709,-0.365144584,,4.525785108,1.52352069,-0.415864175,-0.787576458,0.135238218
3.58302224,1.188404349,0.060661709,-0.365144584,,4.526142613,1.554163422,-0.402476997,-0.755618346,0.134540552
3.583333333,2.708333333,-0.015704949,-0.538684171,,4.527106683,1.059440011,-0.613362825,-1.268680663,0.140103449
3.584980433,1.319106725,0.061128349,-0.393142993,,4.527196863,1.0273625,-0.626568689,-1.301901565,0.140407866
3.584980433,1.319106725,0.061128349,-0.393142993,,4.527707476,1.933140034,-0.239998404,-0.360820342,0.113302999
3.588900068,1.449486068,0.060401439,-0.418521249,,4.530531861,2.174644054,-0.15616813,-0.101541765,0.080488411
3.588900068,1.449486068,0.060401439,-0.418521249,,4.532035482,0.543120882,-0.818191273,-1.801481314,0.150967223
3.590031535,2.247227843,0.027237721,-0.522256546,,4.532252304,0.510164726,-0.830676179,-1.835484932,0.152305081
3.591997556,1.58126696,0.058392338,-0.441754532,,4.536311435,0.016615658,-1.006999804,-2.345333618,0.188133384
3.591997556,1.58126696,0.058392338,-0.441754532,,4.537170435,2.100524152,-0.177327786,-0.178407853,0.091579798
3.595286443,2.634499495,-0.00791686,-0.536805602,,4.537715058,2.030523747,-0.201425041,-0.252977279,0.101450345
3.597358409,2.547707834,0.001020213,-0.535278344,,4.540819099,2.00562716,-0.210269778,-0.277759802,0.104454247
3.597358409,2.547707834,0.001020213,-0.535278344,,4.552381871,2.045537218,-0.193981019,-0.229210493,0.098462714
3.597358409,2.547707834,0.001020213,-0.535278344,,4.553271641,1.417586744,-0.461535358,-0.886091727,0.135887633
3.597358409,2.547707834,0.001020213,-0.535278344,,4.553309484,2.100106517,-0.174994696,-0.170122749,0.090374338
3.597358409,2.547707834,0.001020213,-0.535278344,,4.553387379,1.507990572,-0.422097471,-0.791749073,0.134434335
3.598009756,1.715909243,0.055009622,-0.462657359,,4.553619592,1.568454872,-0.395523049,-0.728580219,0.133078289
3.598009756,1.715909243,0.055009622,-0.462657359,,4.554189195,1.656502324,-0.356669479,-0.636484629,0.130326652
3.603534294,1.846527407,0.050359987,-0.480394447,,4.554192205,1.169424444,-0.567406018,-1.144400276,0.138129552
3.603534294,1.846527407,0.050359987,-0.480394447,,4.554991621,1.075525065,-0.606464565,-1.241859142,0.138876698
3.606711414,2.501296105,0.00543389,-0.532784729,,4.555436945,2.211991656,-0.14219023,-0.046365846,0.071621419
3.606711414,2.501296105,0.00543389,-0.532784729,,4.555606556,1.011436037,-0.632802562,-1.308309199,0.139485516
3.608611735,2.180166299,0.03202616,-0.514982996,,4.556622028,0.916186295,-0.671458304,-1.406962725,0.140633041
3.612613507,2.664239204,-0.011570487,-0.534248159,,4.558957445,2.17225472,-0.152083436,-0.088349617,0.078102839
3.612613507,2.664239204,-0.011570487,-0.534248159,,4.559366389,0.657043468,-0.773620333,-1.67498051,0.146083107
3.614203402,0.066351975,0.006388694,-0.025469901,,4.560389078,0.559835071,-0.810754134,-1.775411585,0.149328814
3.614203402,0.066351975,0.006388694,-0.025469901,,4.561042623,0.493752735,-0.835603078,-1.843682307,0.152007205
3.614278464,0.198674713,0.017932774,-0.074457727,,4.561948775,0.395929066,-0.871767122,-1.944764874,0.156769247
3.614459015,0.330862823,0.027961772,-0.12097256,,4.562418241,1.898611357,-0.250785054,-0.379357919,0.114967509
3.614685474,2.577447542,-0.00231682,-0.533293265,,4.564196067,0.131728371,-0.965274252,-2.218141636,0.17547919
3.614685474,2.577447542,-0.00231682,-0.533293265,,4.564958916,0.033337565,-0.998302896,-2.320244058,0.185156509
3.614745055,0.462916306,0.036568958,-0.165003353,,4.56796012,1.990371521,-0.212729689,-0.279674812,0.104739214
3.614745055,0.462916306,0.036568958,-0.165003353,,4.571540696,2.04504144,-0.191469324,-0.219536856,0.097212461
3.615259278,0.595330796,0.043854883,-0.20669408,,4.576566347,2.114631313,-0.166548657,-0.141701648,0.086091592
3.615259278,0.595330796,0.043854883,-0.20669408,,4.580746493,1.55371052,-0.401371251,-0.732017328,0.132198508
3.615811657,0.7271009,0.049821225,-0.245733014,,4.580871785,1.523888952,-0.414558073,-0.763231035,0.132859226
3.616064418,2.454884375,0.009712325,-0.529991263,,4.583073074,1.060253231,-0.612495825,-1.247658804,0.137831993
3.616064418,2.454884375,0.009712325,-0.529991263,,4.583597829,1.028241714,-0.625628611,-1.280889947,0.138136471
3.616764812,0.858528128,0.054536774,-0.282220603,,4.589127426,0.543817006,-0.815682458,-1.783203189,0.148874254
3.618118744,0.989612479,0.058034427,-0.316168461,,4.58956415,0.510690827,-0.82804804,-1.817470461,0.150213571
3.618118744,0.989612479,0.058034427,-0.316168461,,4.590155475,1.356796742,-0.487424017,-0.934597701,0.13490073
3.618323171,1.974504219,0.044498722,-0.494307197,,4.590572291,1.714896357,-0.329194498,-0.558347262,0.126152857
3.618323171,1.974504219,0.044498722,-0.494307197,,4.590613138,1.23342159,-0.540171323,-1.063765121,0.136002332
3.619865489,1.121432851,0.06034621,-0.347838913,,4.590703514,1.623320329,-0.370142134,-0.65451088,0.129765213
3.619865489,1.121432851,0.06034621,-0.347838913,,4.591018704,1.450806835,-0.446522301,-0.835577392,0.133666543
3.621823682,1.252135227,0.0614383,-0.376798945,,4.592187253,1.135793725,-0.581145869,-1.165398746,0.136732418
3.624762596,1.382676086,0.061326178,-0.403237114,,4.592570368,2.034526604,-0.192395059,-0.219587123,0.097209143
3.625,2.6875,-0.014511512,-0.532240048,,4.593579207,2.000157853,-0.205634061,-0.255786088,0.101863273
3.625417422,2.408472646,0.013849485,-0.526901285,,4.593864873,0.016721907,-1.000598085,-2.32984753,0.185739564
3.625417422,2.408472646,0.013849485,-0.526901285,,4.594663403,1.835262097,-0.27539414,-0.4297041,0.118638428
3.627191935,2.113104755,0.03650261,-0.507165136,,4.594844635,0.951298631,-0.656768286,-1.35727398,0.138566454
3.627191935,2.113104755,0.03650261,-0.507165136,,4.595140181,0.852247121,-0.696409716,-1.460486674,0.14009569
3.628682232,1.513055429,0.059984373,-0.42713343,,4.596177384,2.078672567,-0.175594475,-0.170062559,0.090234271
3.628682232,1.513055429,0.059984373,-0.42713343,,4.596504554,0.723412944,-0.746927807,-1.594213714,0.142814732
3.632012538,2.60718725,-0.005809164,-0.531043644,,4.598328282,0.622347022,-0.785688689,-1.698769071,0.145681241
3.632012538,2.60718725,-0.005809164,-0.531043644,,4.600659295,0.431628437,-0.856691444,-1.896274676,0.153447801
3.633237076,1.646267017,0.057296327,-0.448960464,,4.600832338,0.329907394,-0.893358161,-2.001926816,0.159133276
3.633237076,1.646267017,0.057296327,-0.448960464,,4.600943984,1.309304141,-0.507755409,-0.980161324,0.134838497
3.634770427,2.362060917,0.017839872,-0.523517971,,4.600980739,2.151243073,-0.150847243,-0.088009584,0.077437715
3.634770427,2.362060917,0.017839872,-0.523517971,,4.601041553,1.283001986,-0.519008596,-1.007748501,0.135072203
3.634770427,2.362060917,0.017839872,-0.523517971,,4.601149329,1.930649523,-0.233412362,-0.325674879,0.109651703
3.634770427,2.362060917,0.017839872,-0.523517971,,4.601438585,1.76091287,-0.308027913,-0.504717921,0.123184519
3.634770427,2.362060917,0.017839872,-0.523517971,,4.601949591,0.198558672,-0.939201357,-2.138190298,0.168324168
3.634770427,2.362060917,0.017839872,-0.523517971,,4.602134671,2.019912128,-0.196669371,-0.230121046,0.098586307
3.638761614,1.77688518,0.053320427,-0.467737986,,4.602310763,1.786573453,-0.296503164,-0.477255411,0.121591411
3.648918322,1.906182668,0.048038931,-0.483335378,,4.603511971,0.096256455,-0.973567133,-2.244305781,0.177174075
3.649339602,2.636926958,-0.009463144,-0.528524419,,4.606779404,0.802240874,-0.715927174,-1.508780356,0.140567541
3.649339602,2.636926958,-0.009463144,-0.528524419,,4.607070273,0.774774918,-0.726682148,-1.537321703,0.141147417
3.652173913,0,0,0,,4.609795287,2.184812485,-0.139511633,-0.045700348,0.070285589
3.652173913,0,0,0,,4.612542967,0.278445724,-0.910754287,-2.052094562,0.16201064
3.652173913,0,0,0,,4.612781152,0.250443696,-0.920489553,-2.081167162,0.163962026
3.652248976,0.132322738,0.012415393,-0.049994183,,4.613554727,1.610899952,-0.374980273,-0.657260615,0.128943321
3.652324038,0.264645476,0.023259805,-0.097560595,,4.6138924,2.069815059,-0.17595223,-0.170007431,0.090164976
3.652324038,0.264645476,0.023259805,-0.097560595,,4.614171073,1.464199343,-0.440270145,-0.811768383,0.132248711
3.652610078,0.396698959,0.032617669,-0.142587015,,4.615842564,1.122929007,-0.586286278,-1.170243288,0.135711316
3.652896117,0.528752442,0.040593327,-0.185162022,,4.61842398,0.965455431,-0.650738654,-1.334386459,0.137310729
3.652896117,0.528752442,0.040593327,-0.185162022,,4.622536949,0.608853692,-0.789988429,-1.705327702,0.14514726
3.652896117,0.528752442,0.040593327,-0.185162022,,4.622730386,1.938893353,-0.227474916,-0.305656325,0.107418848
3.652896117,0.528752442,0.040593327,-0.185162022,,4.624685316,0.445896781,-0.85030246,-1.874351203,0.151779535
3.652896117,0.528752442,0.040593327,-0.185162022,,4.627758102,2.126030933,-0.153951906,-0.100871564,0.079186961
3.652896117,0.528752442,0.040593327,-0.185162022,,4.627861828,0.082259724,-0.975818574,-2.252353733,0.177461711
3.653350627,2.294999373,0.023309373,-0.517467896,,4.637766096,1.698854693,-0.334269657,-0.553049085,0.124238627
3.653350627,2.294999373,0.023309373,-0.517467896,,4.638729005,1.372173217,-0.480218238,-0.898915005,0.132135714
3.653448496,0.660522546,0.04723908,-0.225188161,,4.639298778,1.218575877,-0.546031654,-1.060966822,0.133632025
3.654000874,0.79229265,0.052618395,-0.262761988,,4.642859374,1.848705429,-0.265605741,-0.391277663,0.114742155
3.654000874,0.79229265,0.052618395,-0.262761988,,4.644668976,0.868591468,-0.68904846,-1.427015478,0.137575948
3.655354806,0.923377002,0.056750097,-0.297672774,,4.645473119,2.117173425,-0.153652904,-0.100739437,0.078962082
3.65635214,2.556614209,-0.000956852,-0.52679384,,4.646367569,0.70819785,-0.751479585,-1.594285923,0.141079169
3.65635214,2.556614209,-0.000956852,-0.52679384,,4.650042997,2.162763293,-0.138131843,-0.04736536,0.069687284
3.656708739,1.054461353,0.059674605,-0.330148238,,4.65070645,1.553279261,-0.399887247,-0.701862287,0.128319968
3.656708739,1.054461353,0.059674605,-0.330148238,,4.650811994,1.528158109,-0.411165605,-0.728511389,0.128892649
3.656708739,1.054461353,0.059674605,-0.330148238,,4.650956304,0.346227502,-0.884540828,-1.970581913,0.156083221
3.656708739,1.054461353,0.059674605,-0.330148238,,4.652347241,0.182703373,-0.940527437,-2.140822676,0.167452273
3.656708739,1.054461353,0.059674605,-0.330148238,,4.653734905,1.98128173,-0.205501154,-0.244017599,0.100141026
3.656708739,1.054461353,0.059674605,-0.330148238,,4.654917586,1.059810031,-0.611927882,-1.222687415,0.134340132
3.658666931,1.185163729,0.061394873,-0.360070704,,4.65535963,1.032844106,-0.622939104,-1.250923592,0.134629785
3.660625124,1.315866105,0.061902775,-0.387564834,,4.656760301,2.048381109,-0.177149546,-0.169881973,0.089962135
3.660625124,1.315866105,0.061902775,-0.387564834,,4.659661929,2.073083522,-0.167037963,-0.141355113,0.085528986
3.663707199,2.03415948,0.041398588,-0.495658635,,4.660617309,1.686434316,-0.338954624,-0.555606589,0.123320041
3.663707199,2.03415948,0.041398588,-0.495658635,,4.660941874,1.997922375,-0.197337787,-0.222229492,0.097310348
3.66454476,1.446245448,0.061193951,-0.412423212,,4.661377062,1.598242235,-0.379260648,-0.649313627,0.126425067
3.665705145,2.510202479,0.003639635,-0.524548148,,4.661872134,1.480406796,-0.432276082,-0.774616824,0.129134723
3.666666667,2.666666667,-0.013285416,-0.525730511,,4.661881374,1.385565725,-0.474102479,-0.875467653,0.130576137
3.666666667,2.666666667,-0.013285416,-0.525730511,,4.662518347,0.542423361,-0.813286261,-1.762512375,0.145890695
3.666666667,2.666666667,-0.013285416,-0.525730511,,4.662886236,0.514518464,-0.823519712,-1.79153931,0.147026592
3.668464396,1.576624791,0.05921405,-0.434821542,,4.662954089,1.205711159,-0.551237361,-1.065771709,0.132414141
3.668464396,1.576624791,0.05921405,-0.434821542,,4.663648206,1.937280576,-0.223654282,-0.285939845,0.104798567
3.668464396,1.576624791,0.05921405,-0.434821542,,4.664440432,1.856949259,-0.260099101,-0.371588823,0.112605225
3.668464396,1.576624791,0.05921405,-0.434821542,,4.664817097,2.036070137,-0.180849225,-0.178862959,0.091293488
3.668464396,1.576624791,0.05921405,-0.434821542,,4.665151841,1.109080091,-0.5915419,-1.167119568,0.133246648
3.668464396,1.576624791,0.05921405,-0.434821542,,4.667225331,0.982591399,-0.643162206,-1.299764385,0.134649375
3.671930826,2.227937829,0.028471126,-0.51085991,,4.667630028,0.014086234,-0.993388489,-2.313248075,0.182586444
3.671930826,2.227937829,0.028471126,-0.51085991,,4.668248321,0.882748267,-0.6830268,-1.404419158,0.136165256
3.673679205,2.586353917,-0.004480474,-0.524521569,,4.670576236,0.694704521,-0.75595969,-1.600857879,0.140342386
3.673988934,1.707242954,0.055919378,-0.454632372,,4.670606196,1.756215684,-0.306232636,-0.476322672,0.119177413
3.675058149,2.46379075,0.008090506,-0.521998166,,4.671072669,2.152248457,-0.137151471,-0.047118226,0.069191391
3.679513472,1.837861117,0.051238751,-0.4719009,,4.671641566,1.786677616,-0.292039988,-0.443208815,0.117261521
3.679513472,1.837861117,0.051238751,-0.4719009,,4.671984061,1.312525737,-0.505662101,-0.949113652,0.130799216
3.684411153,2.417379021,0.012390189,-0.519147697,,4.672099885,1.281302189,-0.519057513,-0.982226889,0.131121207
3.684411153,2.417379021,0.012390189,-0.519147697,,4.672921648,0.593750497,-0.793883744,-1.705761367,0.14347526
3.690219487,0.065970764,0.006430373,-0.025127662,,4.674647296,0.462857385,-0.841756528,-1.842042911,0.148826797
3.690219487,0.065970764,0.006430373,-0.025127662,,4.674982325,0.360495845,-0.878117022,-1.948863211,0.154194366
3.690294549,0.198293502,0.018112824,-0.073704035,,4.676697098,0.168706642,-0.943174854,-2.14884545,0.167490855
3.6904751,0.330481612,0.028257047,-0.119781189,,4.678413604,0.0660741,-0.97605253,-2.255891106,0.176687204
3.690511026,2.160876286,0.033309613,-0.50370213,,4.679458247,0.805845318,-0.712971735,-1.481558288,0.137126132
3.690511026,2.160876286,0.033309613,-0.50370213,,4.67980354,0.773240209,-0.725602175,-1.515666559,0.137853183
3.69076114,0.462535095,0.036961363,-0.163350834,,4.684076321,2.109695282,-0.148914423,-0.087328097,0.076191849
3.69076114,0.462535095,0.036961363,-0.163350834,,4.686069257,0.281465928,-0.904732524,-2.028346173,0.158639736
3.691006269,2.616093625,-0.008168833,-0.521979999,,4.68635201,0.248224443,-0.91597353,-2.063031218,0.160932044
3.691085335,0.593944192,0.044278059,-0.204258796,,4.695893368,1.873931315,-0.249478265,-0.337280238,0.108815303
3.691085335,0.593944192,0.044278059,-0.204258796,,4.697260653,1.796463948,-0.285770038,-0.420108923,0.114725766
3.691637713,0.725714296,0.05032447,-0.242816114,,4.697453833,2.015336619,-0.184440769,-0.183559151,0.091686617
3.692590868,0.857141524,0.055108572,-0.278804984,,4.697733097,1.741471332,-0.311605189,-0.479150668,0.117992476
3.693944801,0.988225875,0.058663478,-0.31223832,,4.697760158,1.656636268,-0.351215557,-0.570468915,0.121877886
3.693944801,0.988225875,0.058663478,-0.31223832,,4.698755967,1.419616795,-0.458630894,-0.824406577,0.127654186
3.694302349,1.96583793,0.045281909,-0.485306124,,4.699468466,1.328424116,-0.498481316,-0.921613719,0.128828483
3.695510181,1.118192231,0.060994703,-0.342963054,,4.700181338,1.266030355,-0.525286739,-0.987903268,0.129492358
3.695510181,1.118192231,0.060994703,-0.342963054,,4.701572773,1.173077237,-0.564546138,-1.086330411,0.130404992
3.697468374,1.248894607,0.062134976,-0.37141478,,4.705743485,0.918652225,-0.668148756,-1.354349361,0.133553558
3.697530601,2.348299625,0.018506241,-0.514464714,,4.707449521,0.822650995,-0.705826159,-1.454996033,0.135321346
3.697530601,2.348299625,0.018506241,-0.514464714,,4.708541889,0.757222145,-0.731063219,-1.523495451,0.136799289
3.700407288,1.379435467,0.062052449,-0.397329718,,4.710059813,0.660119973,-0.767842897,-1.625035369,0.139473537
3.704326924,1.509814809,0.060716532,-0.420687627,,4.713246104,2.133087076,-0.134594684,-0.044445281,0.067798267
3.704326924,1.509814809,0.060716532,-0.420687627,,4.713530859,0.396835713,-0.863235573,-1.899957948,0.150390513
3.708333333,2.645833333,-0.012028461,-0.519164303,,4.714590785,0.298404019,-0.897091714,-2.002747219,0.156191799
3.709091226,2.093814742,0.037811655,-0.496002623,,4.715257966,0.231608785,-0.919429944,-2.072549505,0.160775175
3.709091226,2.093814742,0.037811655,-0.496002623,,4.716167128,0.1329044,-0.951406524,-2.175832644,0.168629275
3.709091226,2.093814742,0.037811655,-0.496002623,,4.723795251,1.78249682,-0.290679217,-0.422264221,0.113456755
3.709091226,2.093814742,0.037811655,-0.496002623,,4.725303066,1.757966136,-0.302273089,-0.44816804,0.114824775
3.709091226,2.093814742,0.037811655,-0.496002623,,4.726099615,2.088683635,-0.148393671,-0.086972948,0.075611478
3.709091226,2.093814742,0.037811655,-0.496002623,,4.72628702,1.915484534,-0.226805141,-0.276451135,0.102230249
3.709216254,1.637600728,0.058145438,-0.44108822,,4.726971014,1.314027143,-0.50436713,-0.926560754,0.12708466
3.709216254,1.637600728,0.058145438,-0.44108822,,4.727568061,1.28285693,-0.517777064,-0.959740543,0.127428001
3.714740792,1.768218891,0.054162596,-0.459392867,,4.728338193,1.83471515,-0.265375188,-0.363246858,0.109376917
3.715345871,2.565520584,-0.00313238,-0.517944117,,4.734179898,1.600150851,-0.376172665,-0.615265712,0.120936962
3.715345871,2.565520584,-0.00313238,-0.517944117,,4.73467497,1.482315411,-0.430042253,-0.742502035,0.123864292
3.716110801,2.281238081,0.024056563,-0.508527422,,4.734760015,1.953087923,-0.207834879,-0.230961336,0.097205359
3.724698876,2.519108854,0.001657555,-0.515957958,,4.734883375,1.688381291,-0.334813112,-0.51924654,0.117562062
3.724897499,1.897516379,0.048821019,-0.474491584,,4.736086612,0.807306392,-0.711127661,-1.462175234,0.134118375
3.72826087,0,0,0,,4.736147439,1.387512701,-0.472217063,-0.844121259,0.125395205
3.728265061,0.131941527,0.012517068,-0.049446753,,4.736833687,0.774482651,-0.723736321,-1.4965674,0.134868705
3.728265061,0.131941527,0.012517068,-0.049446753,,4.73918205,1.207875578,-0.549505355,-1.035760069,0.127515011
3.728340123,0.264264265,0.023477309,-0.096583023,,4.739877918,1.111201864,-0.589792204,-1.138743448,0.128668935
3.728340123,0.264264265,0.023477309,-0.096583023,,4.741951409,0.984713173,-0.641201466,-1.272579089,0.130349124
3.728626163,0.396317748,0.0329319,-0.141154168,,4.741966984,1.969728568,-0.19895911,-0.208982207,0.094447026
3.728626163,0.396317748,0.0329319,-0.141154168,,4.74269936,2.068560304,-0.153323273,-0.100011058,0.077830328
3.728708513,0.528083848,0.040972613,-0.183166368,,4.743523627,0.282086396,-0.900674294,-2.01195199,0.15586458
3.728708513,0.528083848,0.040972613,-0.183166368,,4.743908057,0.248532647,-0.91177467,-2.047067785,0.15815359
3.729274552,0.659135942,0.047657988,-0.222490859,,4.744476282,0.884912686,-0.680743827,-1.377533566,0.131977506
3.729274552,0.659135942,0.047657988,-0.222490859,,4.744879016,1.55574811,-0.396378791,-0.658809589,0.121325245
3.72982693,0.790906046,0.053106761,-0.259566061,,4.744984559,1.530626958,-0.40789621,-0.686005469,0.121955123
3.72982693,0.790906046,0.053106761,-0.259566061,,4.748442221,0.695977594,-0.753206132,-1.575773371,0.136395496
3.731180863,0.921990397,0.057296971,-0.293962017,,4.749253476,0.594998487,-0.790644416,-1.681811617,0.13971828
3.731180863,0.921990397,0.057296971,-0.293962017,,4.750690461,1.822949493,-0.269342697,-0.36496948,0.108226189
3.732120339,1.052548771,0.060257548,-0.32580383,,4.750756157,2.056249332,-0.157025292,-0.109147349,0.079371498
3.732120339,1.052548771,0.060257548,-0.32580383,,4.750979125,0.464105375,-0.837681401,-1.818848481,0.145149909
3.732672936,2.595260292,-0.006850482,-0.515383704,,4.751577919,1.062554607,-0.609578737,-1.186606549,0.12856372
3.73405188,2.472697125,0.006290795,-0.513662836,,4.752019963,1.035588681,-0.6205361,-1.215180025,0.12892923
3.73405188,2.472697125,0.006290795,-0.513662836,,4.75284831,0.361768918,-0.873168194,-1.925770107,0.15044639
3.734311623,1.181923109,0.062008799,-0.354890974,,4.754977612,0.168706642,-0.93676566,-2.128000089,0.163651226
3.734311623,1.181923109,0.062008799,-0.354890974,,4.755151793,0.0660741,-0.968566629,-2.236014175,0.172733693
3.734691001,2.214176537,0.029277526,-0.502032265,,4.75810782,1.702276217,-0.327122354,-0.493475966,0.114845429
3.736269816,1.312625485,0.062555804,-0.381859271,,4.75931509,1.375384949,-0.477193286,-0.848287423,0.123766171
3.736269816,1.312625485,0.062555804,-0.381859271,,4.760092647,1.993540577,-0.184915773,-0.172946879,0.089312742
3.739686376,2.025493191,0.042056579,-0.486283201,,4.761255766,0.544037672,-0.808696536,-1.731927592,0.141084025
3.739686376,2.025493191,0.042056579,-0.486283201,,4.761623654,0.516132774,-0.818702325,-1.761165897,0.142241801
3.740189452,1.443004828,0.061864259,-0.40617511,,4.762252132,1.222049981,-0.543231586,-1.012350512,0.125683385
3.740189452,1.443004828,0.061864259,-0.40617511,,4.763891519,2.030936731,-0.166198877,-0.129791964,0.082806866
3.743320474,1.571744757,0.059904991,-0.427819151,,4.766893086,0.014086234,-0.982824875,-2.287914389,0.177303427
3.743320474,1.571744757,0.059904991,-0.427819151,,4.767604445,2.105907906,-0.132402516,-0.043828782,0.066632692
3.747171328,2.403617729,0.012896505,-0.509798045,,4.767653257,1.888465436,-0.235889751,-0.284341776,0.101011308
3.749968112,1.698576665,0.056709276,-0.446449118,,4.768599652,0.871986669,-0.685307344,-1.383624749,0.130813687
3.749968112,1.698576665,0.056709276,-0.446449118,,4.772274723,0.710517533,-0.747037837,-1.553315491,0.134661367
3.75,2.625,-0.010742553,-0.512549832,,4.777220816,0.348023246,-0.876414403,-1.933545891,0.150017341
3.7532712,2.147114993,0.034154821,-0.494988134,,4.779111932,0.182962999,-0.930322303,-2.106685844,0.161247833
3.7532712,2.147114993,0.034154821,-0.494988134,,4.781993358,1.615315777,-0.367494056,-0.578086326,0.116156372
3.75549265,1.829194828,0.052002249,-0.4632247,,4.782609703,1.468615167,-0.435238836,-0.738132071,0.120096699
3.75549265,1.829194828,0.052002249,-0.4632247,,4.788730858,1.127838001,-0.582249275,-1.104313159,0.125049387
3.760290775,2.334538333,0.019123831,-0.505263567,,4.790005525,1.876699779,-0.239606623,-0.285885768,0.099722378
3.760290775,2.334538333,0.019123831,-0.505263567,,4.791312275,0.970364424,-0.646086611,-1.27187415,0.127447395
3.766306443,0.065970764,0.006494968,-0.024926013,,4.794971518,1.788241063,-0.283190081,-0.381680167,0.106157208
3.766310635,0.197912291,0.018256799,-0.072939976,,4.794988734,1.930074624,-0.21236906,-0.223926223,0.093842207
3.766310635,0.197912291,0.018256799,-0.072939976,,4.796241674,1.767576856,-0.29330245,-0.403980961,0.107391879
3.766491186,0.330100401,0.028496869,-0.118568977,,4.797174071,1.314742998,-0.503068544,-0.899844703,0.121605288
3.766491186,0.330100401,0.028496869,-0.118568977,,4.797677013,1.288485771,-0.514392543,-0.928093865,0.12197533
3.766573536,0.461866501,0.037263362,-0.161578624,,4.799140353,0.611741076,-0.782696522,-1.649735742,0.136431195
3.76689773,0.593275598,0.044651326,-0.201999571,,4.800740839,1.818742311,-0.267663393,-0.344982026,0.103313836
3.767463769,0.724327692,0.050729603,-0.239846176,,4.80128872,0.448784164,-0.840597591,-1.820933537,0.143292817
3.767463769,0.724327692,0.050729603,-0.239846176,,4.803544198,1.949828898,-0.201165919,-0.197232353,0.090763839
3.768416925,0.855754919,0.055572908,-0.275320343,,4.805217803,1.629210703,-0.360064198,-0.552875736,0.11333744
3.768416925,0.855754919,0.055572908,-0.275320343,,4.8054054,0.082259724,-0.958979031,-2.206187578,0.168407937
3.769356401,0.986313293,0.059163078,-0.308114614,,4.805777354,1.456487416,-0.44021985,-0.742328498,0.118241742
3.770281527,1.95717164,0.045953463,-0.476101219,,4.806194828,2.084687377,-0.132261854,-0.045624841,0.06640844
3.770281527,1.95717164,0.045953463,-0.476101219,,4.806698741,1.721813004,-0.315185237,-0.449871004,0.108956359
3.770921781,1.116279649,0.061538734,-0.338307551,,4.807428143,1.36272932,-0.48195807,-0.843978742,0.119917898
3.773113065,1.245653987,0.062707439,-0.365920489,,4.809122157,0.807263889,-0.709370335,-1.439877003,0.129850621
3.773113065,1.245653987,0.062707439,-0.365920489,,4.809739969,1.98564222,-0.181464041,-0.154120211,0.085454431
3.774339602,2.574426958,-0.005509969,-0.508743752,,4.809751479,0.779613761,-0.719890077,-1.469028178,0.130535112
3.774339602,2.574426958,-0.005509969,-0.508743752,,4.809787286,1.239564914,-0.535123186,-0.976760132,0.121740007
3.77605198,1.376194847,0.062652967,-0.391290746,,4.811800941,1.142012405,-0.576028742,-1.081333775,0.123107557
3.77605198,1.376194847,0.062652967,-0.391290746,,4.814653919,2.034015222,-0.155090993,-0.09781335,0.076741561
3.778870975,2.267476789,0.024751466,-0.49945208,,4.814837528,1.559847502,-0.392502392,-0.625322037,0.11471164
3.779183002,1.504934775,0.061342924,-0.413876207,,4.81496282,1.530025934,-0.406366615,-0.658080098,0.115557518
3.780176801,2.082136793,0.038531287,-0.486581252,,4.815435645,0.957438408,-0.650760711,-1.278051084,0.126075022
3.780176801,2.082136793,0.038531287,-0.486581252,,4.815759131,2.070072901,-0.136676423,-0.056666875,0.068560054
3.783692607,2.528015229,-0.000516123,-0.507027751,,4.817311046,0.28022491,-0.896372906,-1.994216574,0.152159597
3.783692607,2.528015229,-0.000516123,-0.507027751,,4.817634882,0.251959835,-0.905480375,-2.023932271,0.154065708
3.784072332,1.632720694,0.058766073,-0.433746727,,4.818898641,0.858020338,-0.689610335,-1.382973956,0.127992405
3.79071997,1.759552602,0.054883722,-0.450888427,,4.821523332,1.916107496,-0.216537153,-0.225315944,0.092076563
3.79071997,1.759552602,0.054883722,-0.450888427,,4.821850596,0.728322263,-0.738887993,-1.519853314,0.131259079
3.791666667,2.604166667,-0.009429663,-0.50589518,,4.822972855,0.626281015,-0.776532091,-1.627568969,0.13455483
3.796812054,2.458935833,0.006617824,-0.504014477,,4.82334812,1.067075606,-0.606604468,-1.158121644,0.123483494
3.797451175,2.200415245,0.030027534,-0.493082561,,4.823872875,1.035064089,-0.619560435,-1.192305882,0.124015165
3.797451175,2.200415245,0.030027534,-0.493082561,,4.825661226,0.435038492,-0.844118224,-1.828764931,0.142665224
3.800876677,1.88885009,0.049486869,-0.465466758,,4.827854634,0.332359082,-0.87861166,-1.936466191,0.148271779
3.800876677,1.88885009,0.049486869,-0.465466758,,4.829373649,0.199776492,-0.921155252,-2.075960515,0.157211877
3.804347826,0,0,0,,4.82953972,0.09651608,-0.952554695,-2.185057886,0.165719643
3.804352017,0.131941527,0.012627125,-0.049031867,,4.830682703,1.948474854,-0.198803436,-0.183726491,0.087321208
3.804356208,0.263883054,0.023647448,-0.095591131,,4.831134491,1.860295531,-0.244288711,-0.283528102,0.096227288
3.804356208,0.263883054,0.023647448,-0.095591131,,4.832600957,1.984501598,-0.178094123,-0.141661058,0.082681746
3.804356208,0.263883054,0.023647448,-0.095591131,,4.834565622,0.547829806,-0.80430241,-1.707249269,0.136949271
3.804356208,0.263883054,0.023647448,-0.095591131,,4.835002346,0.514703627,-0.815990072,-1.742126447,0.138353851
3.804356208,0.263883054,0.023647448,-0.095591131,,4.837514907,2.0328746,-0.150141042,-0.085123176,0.074713723
3.804356208,0.263883054,0.023647448,-0.095591131,,4.840593632,1.930604352,-0.207537853,-0.199797369,0.087960227
3.804438559,0.395649154,0.033160527,-0.139606685,,4.840609686,0.016721907,-0.97448771,-2.266904316,0.172657585
3.804520909,0.527415254,0.04127062,-0.181136046,,4.842407497,1.576342306,-0.383845656,-0.59591233,0.111278459
3.804520909,0.527415254,0.04127062,-0.181136046,,4.842465367,1.51562896,-0.412273357,-0.663102575,0.113139776
3.805086948,0.658467348,0.04801523,-0.219957611,,4.842897636,2.068718857,-0.130724726,-0.042502592,0.065807545
3.805652987,0.789519442,0.05348932,-0.256313099,,4.843118481,1.665327587,-0.341037429,-0.496661373,0.10769887
3.805652987,0.789519442,0.05348932,-0.256313099,,4.843347146,1.425427936,-0.453387888,-0.762162293,0.115308169
3.805652987,0.789519442,0.05348932,-0.256313099,,4.848092431,1.177689542,-0.560569685,-1.03074207,0.119610693
3.805652987,0.789519442,0.05348932,-0.256313099,,4.850734843,1.08390218,-0.599255216,-1.13122223,0.121097327
3.805652987,0.789519442,0.05348932,-0.256313099,,4.852509967,1.019719486,-0.62519361,-1.199741799,0.122198761
3.805652987,0.789519442,0.05348932,-0.256313099,,4.855106565,0.924081286,-0.663063714,-1.301508136,0.124037254
3.806592463,0.920077815,0.057712581,-0.290065997,,4.861044259,0.663200777,-0.76171436,-1.577696462,0.130987051
3.807531939,1.050636188,0.060720362,-0.321374169,,4.86285742,0.565090312,-0.79699983,-1.68118903,0.134595316
3.807531939,1.050636188,0.060720362,-0.321374169,,4.863935189,0.498386004,-0.820385022,-1.751494455,0.13744036
3.809723223,1.180010527,0.062507083,-0.349914022,,4.865291102,1.884379727,-0.228684645,-0.23923679,0.089278302
3.809931502,2.389856437,0.013358275,-0.50031287,,4.865302899,0.399628745,-0.854051739,-1.8555514,0.142313947
3.810771951,2.013815243,0.0427845,-0.477004476,,4.867326366,1.988190276,-0.174497244,-0.119650578,0.078751543
3.811914508,1.309384866,0.06308003,-0.376039972,,4.868358315,0.132946192,-0.9384084,-2.136824564,0.160281706
3.811914508,1.309384866,0.06308003,-0.376039972,,4.8691281,1.532203794,-0.40377405,-0.634439347,0.109754443
3.811914508,1.309384866,0.06308003,-0.376039972,,4.869195521,1.563095572,-0.389212515,-0.600001258,0.108733963
3.811914508,1.309384866,0.06308003,-0.376039972,,4.869259777,0.033645769,-0.966918877,-2.241980451,0.169190271
3.811914508,1.309384866,0.06308003,-0.376039972,,4.871125238,2.02558643,-0.150618098,-0.075332546,0.07201679
3.811914508,1.309384866,0.06308003,-0.376039972,,4.8745431,1.826270945,-0.257796659,-0.301294586,0.093317189
3.81504553,1.438124794,0.06241715,-0.399566169,,4.875468857,1.963067648,-0.186028999,-0.143722949,0.079880474
3.818176552,1.566864723,0.060469786,-0.420676706,,4.879028642,1.06957478,-0.604530349,-1.137758586,0.119142306
3.818176552,1.566864723,0.060469786,-0.420676706,,4.880277257,1.45980423,-0.436907938,-0.71063967,0.110634823
3.823050949,2.32077704,0.019692952,-0.49593721,,4.88027901,1.037403603,-0.617516006,-1.172096251,0.119711382
3.823050949,2.32077704,0.019692952,-0.49593721,,4.88046021,1.365980785,-0.479048954,-0.814217468,0.112939398
3.824356775,2.135437045,0.034757848,-0.485267618,,4.880501001,1.729341638,-0.307182742,-0.408680076,0.099689698
3.82482419,1.693696631,0.057250571,-0.438758593,,4.88050338,1.636890651,-0.353272973,-0.512932857,0.104516338
3.831471828,1.820528539,0.052644274,-0.454389581,,4.881355579,1.896591618,-0.220455308,-0.217301533,0.085626297
3.831471828,1.820528539,0.052644274,-0.454389581,,4.882819353,1.242816379,-0.53243885,-0.948439459,0.115341057
3.831471828,1.820528539,0.052644274,-0.454389581,,4.883817645,1.948013859,-0.193283977,-0.154714158,0.080357181
3.831471828,1.820528539,0.052644274,-0.454389581,,4.88425803,2.049588412,-0.129531763,-0.041061191,0.064606717
3.831471828,1.820528539,0.052644274,-0.454389581,,4.886300843,1.145329219,-0.573311872,-1.053447535,0.117001635
3.831471828,1.820528539,0.052644274,-0.454389581,,4.890436868,1.797979568,-0.27116581,-0.326295343,0.093500395
3.833333333,2.583333333,-0.008091852,-0.499208166,,4.891643153,1.318948861,-0.499445884,-0.862097088,0.11288416
3.833333333,2.583333333,-0.008091852,-0.499208166,,4.891707023,1.777315361,-0.281817698,-0.349265887,0.094916524
3.833333333,2.583333333,-0.008091852,-0.499208166,,4.891913863,0.54932623,-0.801345107,-1.690001728,0.133523012
3.833333333,2.583333333,-0.008091852,-0.499208166,,4.892146095,1.292691635,-0.510841365,-0.89076451,0.113413633
3.841367102,1.945493692,0.046669423,-0.466973553,,4.892554908,0.515748101,-0.813045894,-1.72542889,0.134962538
3.841631149,2.253715497,0.025393741,-0.49026353,,4.892893799,0.960104303,-0.648036698,-1.251513637,0.120459548
3.841631149,2.253715497,0.025393741,-0.49026353,,4.894830674,0.860633709,-0.686701051,-1.35767413,0.122797916
3.842303582,0.329431807,0.028657042,-0.117246247,,4.897782629,0.730935634,-0.735558502,-1.495366291,0.126393522
3.842303582,0.329431807,0.028657042,-0.117246247,,4.898215308,0.016923862,-0.968677841,-2.252845373,0.168970201
3.842385932,0.461197907,0.037489709,-0.159780013,,4.900431009,0.628946911,-0.772702472,-1.603174065,0.129790588
3.8423934,0.065970764,0.006546109,-0.024721032,,4.902737463,1.473766572,-0.429868232,-0.686980937,0.107741864
3.842397591,0.197912291,0.018394914,-0.072300489,,4.90306913,1.62573184,-0.35771936,-0.516458517,0.102168048
3.842397591,0.197912291,0.018394914,-0.072300489,,4.903952375,0.435861839,-0.839825012,-1.807076821,0.138145001
3.842710126,0.592607004,0.044934312,-0.199702083,,4.904603249,0.333166207,-0.873688381,-1.915689082,0.143854613
3.843276165,0.723659097,0.051061594,-0.23702872,,4.906122265,0.200583616,-0.915144216,-2.055789909,0.152686515
3.843276165,0.723659097,0.051061594,-0.23702872,,4.906487909,1.917577678,-0.20747403,-0.179320046,0.078766333
3.843828525,0.853842337,0.055905064,-0.271657811,,4.907342428,0.81064436,-0.705411857,-1.407580086,0.123310657
3.843828525,0.853842337,0.055905064,-0.271657811,,4.90783087,0.097339427,-0.945404477,-2.164974106,0.160898661
3.844768001,0.984400711,0.059542474,-0.303919692,,4.907971751,0.782994231,-0.715819285,-1.436960905,0.124086452
3.846333381,1.114367067,0.061956796,-0.333563666,,4.91013503,1.133260075,-0.577802426,-1.059073419,0.115195753
3.846452781,2.514253937,-0.000387268,-0.497081294,,4.913148532,2.004574783,-0.154115102,-0.074157822,0.070131079
3.846452781,2.514253937,-0.000387268,-0.497081294,,4.916285941,0.975001085,-0.641597742,-1.228546565,0.118308243
3.848524666,1.243741405,0.063153352,-0.360611976,,4.916587591,0.281268949,-0.889482271,-1.967651895,0.146415474
3.848524666,1.243741405,0.063153352,-0.360611976,,4.916911427,0.253003874,-0.898292264,-1.997536474,0.14829104
3.850908058,1.371314813,0.063124962,-0.384894976,,4.921441387,1.840367945,-0.246022992,-0.263455704,0.084905806
3.850908058,1.371314813,0.063124962,-0.384894976,,4.924907634,0.615667532,-0.776513525,-1.610685115,0.128752261
3.851262376,2.070458845,0.039160687,-0.477014267,,4.928061111,0.450487357,-0.833670039,-1.785325707,0.13594437
3.851262376,2.070458845,0.039160687,-0.477014267,,4.928284074,1.382907627,-0.470329406,-0.779123299,0.107480472
3.85403908,1.500054741,0.061838861,-0.406944363,,4.928858747,1.71969467,-0.309080866,-0.399280097,0.09356715
3.85892841,1.62784066,0.059258297,-0.426264221,,4.931221116,1.229572659,-0.537000478,-0.947306092,0.111066405
3.859572228,2.445174541,0.006906314,-0.494245164,,4.932222488,0.083253193,-0.947247198,-2.174130404,0.160572798
3.859572228,2.445174541,0.006906314,-0.494245164,,4.934741148,1.984261479,-0.168623331,-0.083762843,0.067591621
3.865576048,1.754672568,0.055335996,-0.442839507,,4.936938769,1.538023646,-0.3986536,-0.60266127,0.101438397
3.865576048,1.754672568,0.055335996,-0.442839507,,4.936995564,1.564046323,-0.386239544,-0.573309106,0.100400033
3.86853675,2.188737297,0.030500016,-0.483058507,,4.937505864,1.852579836,-0.237452312,-0.242250054,0.081141049
3.871962252,1.877172141,0.050171848,-0.456498844,,4.938616372,2.022409241,-0.138076286,-0.040486647,0.067440823
3.871962252,1.877172141,0.050171848,-0.456498844,,4.943089936,1.96920769,-0.17835085,-0.101248594,0.066185902
3.872691676,2.376095145,0.01377705,-0.490715762,,4.944278078,0.878033035,-0.678661972,-1.324895915,0.118712966
3.872691676,2.376095145,0.01377705,-0.490715762,,4.947953149,0.7165639,-0.73917572,-1.496922131,0.123506036
3.875,2.5625,-0.006731209,-0.492496441,,4.948700921,1.490920899,-0.420400085,-0.651551374,0.101705187
3.880250955,0.39498056,0.03332029,-0.138040117,,4.948967328,1.61298511,-0.361879761,-0.513367327,0.096610075
3.880250955,0.39498056,0.03332029,-0.138040117,,4.949896518,1.883553093,-0.220283698,-0.200033499,0.074764949
3.880263517,0.263683834,0.023782003,-0.094650375,,4.95074428,1.396869969,-0.463422102,-0.756112423,0.10455967
3.880263517,0.263683834,0.023782003,-0.094650375,,4.950986022,1.071531929,-0.602105905,-1.113836683,0.113077949
3.880333305,0.526746659,0.041483418,-0.17907615,,4.951424496,1.708535859,-0.313402308,-0.403066204,0.090950104
3.880333305,0.526746659,0.041483418,-0.17907615,,4.95203931,1.044431508,-0.613022776,-1.142958108,0.113669133
3.880434783,0,0,0,,4.952310075,1.933962185,-0.192803055,-0.139703113,0.067714494
3.880438974,0.131941527,0.012710604,-0.048610408,,4.954788511,0.349890632,-0.865301444,-1.885330843,0.13981801
3.880438974,0.131941527,0.012710604,-0.048610408,,4.955055303,1.217503515,-0.541528008,-0.953139137,0.109037584
3.880899344,0.657798753,0.048273479,-0.217383025,,4.956679627,0.184830384,-0.9160709,-2.060219317,0.150734664
3.880899344,0.657798753,0.048273479,-0.217383025,,4.959891117,1.121076976,-0.581647343,-1.05724051,0.11103366
3.881090625,0.788635876,0.053778245,-0.253159413,,4.961099847,1.806704471,-0.260345792,-0.285112528,0.081772347
3.881090625,0.788635876,0.053778245,-0.253159413,,4.961799118,1.324481938,-0.495252026,-0.83300555,0.105454821
3.881857526,2.002137294,0.043416803,-0.467600056,,4.962396166,1.293311725,-0.508830788,-0.867320519,0.106270763
3.882004063,0.918165233,0.058008815,-0.286111896,,4.962607661,1.782173787,-0.273617686,-0.313240622,0.083633734
3.882004063,0.918165233,0.058008815,-0.286111896,,4.96483176,0.993957411,-0.632851153,-1.193994717,0.113909072
3.882943539,1.048723606,0.061056767,-0.316870701,,4.9659096,0.548733098,-0.79832689,-1.67116835,0.128915915
3.882943539,1.048723606,0.061056767,-0.316870701,,4.966449605,0.520447488,-0.808046648,-1.701136097,0.130162213
3.885134824,1.178097945,0.062873928,-0.344846248,,4.96767022,0.892929817,-0.672257655,-1.302331073,0.116499302
3.885134824,1.178097945,0.062873928,-0.344846248,,4.971980051,0.014256356,-0.962220319,-2.238520937,0.164230247
3.885811123,2.307015748,0.020214353,-0.486508195,,4.972429773,0.70328452,-0.743159001,-1.504579492,0.122287375
3.885811123,2.307015748,0.020214353,-0.486508195,,4.975856421,0.600911378,-0.779682613,-1.61300588,0.126024235
3.885811123,2.307015748,0.020214353,-0.486508195,,4.978019796,2.001157777,-0.18087038,-0.043915983,0.069345114
3.885811123,2.307015748,0.020214353,-0.486508195,,4.978389413,0.468232458,-0.825177189,-1.753670483,0.131908163
3.885811123,2.307015748,0.020214353,-0.486508195,,4.978897247,0.36451615,-0.859195174,-1.863835287,0.137457419
3.885811123,2.307015748,0.020214353,-0.486508195,,4.980170146,1.821201328,-0.250608943,-0.259708951,0.077383858
3.886625162,1.30677383,0.063464375,-0.370307459,,4.980239301,0.815709454,-0.701277128,-1.381986811,0.117902603
3.886625162,1.30677383,0.063464375,-0.370307459,,4.980986376,0.782885712,-0.713542844,-1.417030778,0.118919405
3.888119447,2.493420604,0.001015106,-0.490360803,,4.981071245,0.17074415,-0.918341079,-2.069416213,0.150235167
3.889901608,1.43324476,0.062835689,-0.392855807,,4.982771739,0.066872092,-0.947288699,-2.179797372,0.158652682
3.889901608,1.43324476,0.062835689,-0.392855807,,4.984248988,1.869293648,-0.222473231,-0.202225708,0.070794487
3.89303263,1.561984689,0.060901825,-0.413412902,,4.985813985,1.431473747,-0.446554411,-0.705990627,0.099246067
3.89303263,1.561984689,0.060901825,-0.413412902,,4.986349849,1.676999161,-0.327505533,-0.426158555,0.087556824
3.89544235,2.123759097,0.035273565,-0.475410226,,4.987370994,1.934499261,-0.187570284,-0.12180274,0.060048756
3.899680268,1.688816597,0.057661932,-0.430927262,,4.987930725,1.983287276,-0.17603103,-0.054807861,0.052376942
3.899680268,1.688816597,0.057661932,-0.430927262,,4.988461851,1.341056772,-0.487145837,-0.806247576,0.101991506
3.901238895,2.424341207,0.008329024,-0.487515626,,4.989395686,1.768927052,-0.278428675,-0.317985827,0.080249159
3.90421804,1.813746048,0.053075805,-0.445978999,,4.990301966,0.284681633,-0.883614082,-1.945961029,0.141627051
3.90421804,1.813746048,0.053075805,-0.445978999,,4.990686395,0.251127884,-0.893833623,-1.981568586,0.143828424
3.912452677,1.933815744,0.047283668,-0.457739635,,4.990689964,1.278984325,-0.514229215,-0.874486324,0.103667743
3.912452677,1.933815744,0.047283668,-0.457739635,,4.994618038,1.186203814,-0.553652459,-0.975684486,0.10597099
3.912716724,2.242037548,0.025720915,-0.479933044,,5.003683537,1.825300968,-0.246303608,-0.245881971,0.071834927
3.912716724,2.242037548,0.025720915,-0.479933044,,5.004056244,1.872747111,-0.216027158,-0.187102277,0.066061873
3.914358342,2.355261811,0.015199853,-0.483977053,,5.004555869,0.930509835,-0.65662437,-1.251637679,0.112440344
3.914358342,2.355261811,0.015199853,-0.483977053,,5.00717825,1.937952724,-0.183959797,-0.106415456,0.05650973
3.916666667,2.541666667,-0.00534993,-0.485767342,,5.008008344,0.833393571,-0.693713912,-1.355543287,0.115224649
3.918198328,0.460529312,0.037637058,-0.157959583,,5.010042819,0.76712163,-0.718403887,-1.426283551,0.117319292
3.918198328,0.460529312,0.037637058,-0.157959583,,5.011444115,1.987386916,-0.176403502,-0.037039846,0.037381739
3.91821089,0.329232586,0.02879067,-0.116063642,,5.012594791,0.668646235,-0.754153685,-1.531205598,0.120783363
3.9183049,0.19771307,0.018476803,-0.071583707,,5.015585295,1.327792327,-0.492099074,-0.81278954,0.099341254
3.918480356,0.065970764,0.00658312,-0.024513243,,5.015858117,1.784240491,-0.267269943,-0.289595756,0.074114477
3.918480356,0.065970764,0.00658312,-0.024513243,,5.017216361,1.296890092,-0.505610431,-0.84671179,0.100197077
3.918522522,0.591938409,0.045122896,-0.197372442,,5.017689763,0.40176992,-0.845003954,-1.814744653,0.132866269
3.918522522,0.591938409,0.045122896,-0.197372442,,5.018921685,0.30204373,-0.876437051,-1.920660652,0.138672572
3.918713804,0.722775532,0.051276172,-0.234122445,,5.01934144,1.494464794,-0.415910472,-0.624234217,0.092384196
3.919266164,0.852958772,0.05615345,-0.268208203,,5.019607847,1.616529005,-0.356328937,-0.484515833,0.086068825
3.920179601,0.982488128,0.059795892,-0.299664786,,5.019641927,0.234405977,-0.896863692,-1.99255004,0.143093785
3.920179601,0.982488128,0.059795892,-0.299664786,,5.020188414,1.811984082,-0.251894555,-0.255540061,0.070599403
3.921744982,1.112454484,0.062242589,-0.328744274,,5.020535689,0.134509516,-0.925579209,-2.098900587,0.150429531
3.921744982,1.112454484,0.062242589,-0.328744274,,5.022804568,1.400485091,-0.459303573,-0.729293157,0.095846222
3.922347951,2.058780897,0.039697919,-0.467328266,,5.023484785,1.712150981,-0.306414915,-0.371921015,0.078987768
3.922347951,2.058780897,0.039697919,-0.467328266,,5.028314315,1.542607776,-0.39241877,-0.566591751,0.0888371
3.92323532,1.24113037,0.063457253,-0.35512091,,5.02837111,1.568630454,-0.379670958,-0.536726667,0.087459807
3.925618712,1.368703778,0.063447677,-0.37883117,,5.031331177,1.222211159,-0.537318928,-0.925417516,0.101115122
3.928895158,1.495174707,0.0621978,-0.399910821,,5.034664163,1.125691868,-0.577627899,-1.030787672,0.103841073
3.928895158,1.495174707,0.0621978,-0.399910821,,5.037250209,0.818629089,-0.698277544,-1.363807368,0.113459857
3.929786114,2.47258727,0.002428587,-0.483625126,,5.038537609,0.785180889,-0.710706485,-1.399503864,0.11453748
3.933784488,1.622960626,0.059616053,-0.41866112,,5.039604806,0.998572303,-0.62884295,-1.168349354,0.107356192
3.933784488,1.622960626,0.059616053,-0.41866112,,5.042806142,1.899752205,-0.199601619,-0.137872836,0.053004057
3.93832226,1.747890077,0.055725765,-0.434635092,,5.043946094,0.897637461,-0.668071996,-1.276743923,0.110247522
3.939622324,2.177059348,0.030889341,-0.472908293,,5.045219699,1.950161298,-0.162510156,-0.07075933,0.03649059
3.939622324,2.177059348,0.030889341,-0.472908293,,5.045652869,1.389311361,-0.463476609,-0.735087404,0.093462217
3.942905562,2.403507874,0.0097537,-0.48077327,,5.045776261,1.725050746,-0.297563307,-0.349303848,0.073938622
3.942905562,2.403507874,0.0097537,-0.48077327,,5.047707112,1.077501424,-0.596929106,-1.080042843,0.104113254
3.944708464,1.870389651,0.050511391,-0.447767627,,5.048074217,0.285675757,-0.879582096,-1.93127937,0.137797238
3.950422383,2.29421547,0.020574164,-0.476766194,,5.048410029,0.251591753,-0.889794144,-1.96755767,0.140015507
3.950422383,2.29421547,0.020574164,-0.476766194,,5.0487604,1.050401003,-0.607854743,-1.109396672,0.104883422
3.952943101,1.990459346,0.043950914,-0.458095832,,5.050908496,0.705446315,-0.739425274,-1.48208521,0.116588157
3.952943101,1.990459346,0.043950914,-0.458095832,,5.052788914,0.60303058,-0.775669861,-1.59139472,0.120670478
3.956145701,0.526078065,0.041607475,-0.176992271,,5.053174787,1.872747111,-0.210198085,-0.169288744,0.054966158
3.956145701,0.526078065,0.041607475,-0.176992271,,5.053676535,1.237294655,-0.530128013,-0.902467021,0.098215215
3.956145701,0.526078065,0.041607475,-0.176992271,,5.055321906,0.470351659,-0.820593181,-1.732584681,0.126740529
3.956145701,0.526078065,0.041607475,-0.176992271,,5.05737597,0.366677944,-0.85396382,-1.842723898,0.132234614
3.956145701,0.526078065,0.041607475,-0.176992271,,5.05875886,1.989374965,-0.121044443,-0.011345051,0.009291511
3.956145701,0.526078065,0.041607475,-0.176992271,,5.059351759,0.17074415,-0.91244095,-2.051392862,0.144996835
3.956158263,0.394781339,0.033440225,-0.136605661,,5.059509928,0.066872092,-0.940632736,-2.162532787,0.153262607
3.956170825,0.263484613,0.023865152,-0.093698892,,5.065423996,0.551474347,-0.792866386,-1.643490469,0.122105915
3.956170825,0.263484613,0.023865152,-0.093698892,,5.065964001,0.523188736,-0.802430291,-1.673605033,0.123403906
3.956336982,0.656915188,0.048417695,-0.214726425,,5.066173296,1.481965825,-0.419590668,-0.624346059,0.08658365
3.956346282,0.131742307,0.012748176,-0.0481137,,5.066504963,1.633931093,-0.344431172,-0.449493362,0.077495169
3.956521739,0,0,0,,5.067078199,1.861529206,-0.215606643,-0.176397894,0.053374129
3.956521739,0,0,0,,5.068578914,0.885200127,-0.672000236,-1.283875529,0.108637493
3.956521739,0,0,0,,5.071243109,0.014256356,-0.952977895,-2.216463157,0.157021636
3.956528264,0.787752311,0.053952816,-0.249962372,,5.074911994,0.72065911,-0.73298637,-1.459801587,0.114205093
3.956528264,0.787752311,0.053952816,-0.249962372,,5.081600575,1.783866934,-0.260964528,-0.267678435,0.061172545
3.957441702,0.917281667,0.058209562,-0.282357447,,5.081933537,0.352889858,-0.856849078,-1.851756866,0.131389944
3.958333333,2.520833333,-0.003950222,-0.479028134,,5.083131993,1.143937214,-0.568465307,-0.997689234,0.09840758
3.95835514,1.046811024,0.061260959,-0.312306088,,5.08358549,0.185221139,-0.906579848,-2.03050368,0.1422575
3.95835514,1.046811024,0.061260959,-0.312306088,,5.084172063,1.331618463,-0.487805752,-0.789015979,0.091134328
3.95835514,1.046811024,0.061260959,-0.312306088,,5.08524834,1.807237636,-0.246241416,-0.237809026,0.057093703
3.95835514,1.046811024,0.061260959,-0.312306088,,5.085546043,1.305586977,-0.499270341,-0.817758337,0.092043598
3.95835514,1.046811024,0.061260959,-0.312306088,,5.088796439,1.646830858,-0.336035285,-0.427916798,0.072859557
3.95835514,1.046811024,0.061260959,-0.312306088,,5.089021597,1.470792094,-0.423709598,-0.630606079,0.083997121
3.959845478,1.17548691,0.063094778,-0.339604458,,5.089282904,0.985678224,-0.632283453,-1.169475645,0.103358625
3.961335816,1.304162795,0.06371017,-0.364489766,,5.090912165,1.737507909,-0.286590599,-0.320365498,0.064442682
3.961335816,1.304162795,0.06371017,-0.364489766,,5.092988192,1.379061286,-0.466083903,-0.73334632,0.087966399
3.964612262,1.430633725,0.06309087,-0.386452365,,5.093370482,1.950161298,-0.145732177,-0.058826524,0.024259458
3.966527925,2.112081149,0.035701448,-0.465444061,,5.096266395,1.543598873,-0.388074454,-0.545343342,0.07880474
3.966527925,2.112081149,0.035701448,-0.465444061,,5.096333817,1.574490651,-0.372691657,-0.509763701,0.076815991
3.967888708,1.557104655,0.061194955,-0.406048163,,5.099433102,1.256955758,-0.519946589,-0.868297127,0.092414574
3.967888708,1.557104655,0.061194955,-0.406048163,,5.102900753,0.620570574,-0.767366849,-1.560556905,0.116314326
3.967888708,1.557104655,0.061194955,-0.406048163,,5.105477352,1.15902071,-0.561362202,-0.975265956,0.095561325
3.967888708,1.557104655,0.061194955,-0.406048163,,5.10605423,0.455390399,-0.822874576,-1.736709542,0.124040222
3.967888708,1.557104655,0.061194955,-0.406048163,,5.108022682,1.847132534,-0.217534825,-0.183080951,0.046356078
3.967888708,1.557104655,0.061194955,-0.406048163,,5.109766059,0.083253193,-0.932192911,-2.134054498,0.148232175
3.971452781,2.451753937,0.003850945,-0.47688147,,5.111519105,0.820299214,-0.694944621,-1.343460676,0.107489868
3.971452781,2.451753937,0.003850945,-0.47688147,,5.112603587,0.792123053,-0.705370048,-1.373641545,0.108490599
3.97242648,1.682034106,0.057995848,-0.422939312,,5.113915724,0.97324089,-0.636293324,-1.176874822,0.101586
3.976964252,1.806963557,0.053386025,-0.437457136,,5.118581219,1.937952724,-0.14436383,-0.066874525,0.021260099
3.976964252,1.806963557,0.053386025,-0.437457136,,5.119454712,1.084413552,-0.591624622,-1.053882385,0.096954253
3.977327984,2.22923727,0.026142616,-0.470347881,,5.120100695,0.872170206,-0.675090135,-1.285230099,0.104805377
3.978969602,2.342461533,0.01544368,-0.474026984,,5.120705081,1.052242375,-0.604614136,-1.088859661,0.098039044
3.985198889,1.927033253,0.047521578,-0.448682787,,5.121043285,1.989374965,-0.088703836,-0.009871332,0.001035788
3.993433526,2.047102949,0.040141659,-0.457550614,,5.122306678,0.283997527,-0.875329103,-1.916308068,0.132851305
3.993433526,2.047102949,0.040141659,-0.457550614,,5.12258956,0.255285776,-0.88376485,-1.946959134,0.134696064
3.993433526,2.047102949,0.040141659,-0.457550614,,5.122796249,1.58980409,-0.36311815,-0.484967206,0.071630614
3.993433526,2.047102949,0.040141659,-0.457550614,,5.123389839,1.530334427,-0.392927262,-0.553364882,0.075613606
3.993433526,2.047102949,0.040141659,-0.457550614,,5.124170163,1.677037753,-0.316836977,-0.382831559,0.064234076
3.993433526,2.047102949,0.040141659,-0.457550614,,5.125187663,0.740004681,-0.723959754,-1.426873817,0.109578569
3.993960161,0.591054844,0.045201829,-0.194966503,,5.126515646,1.442052333,-0.435267968,-0.653310078,0.080426001
3.993960161,0.591054844,0.045201829,-0.194966503,,5.12690425,0.635783369,-0.760998484,-1.538609533,0.113877686
3.994105636,0.460330092,0.037731761,-0.156263753,,5.130611798,0.441602314,-0.826032231,-1.745888348,0.12305787
3.994105636,0.460330092,0.037731761,-0.156263753,,5.132484631,1.926734819,-0.1526865,-0.081386004,0.022180263
3.994118198,0.329033366,0.02886131,-0.114868236,,5.132881604,0.337094338,-0.858685391,-1.857186311,0.128828074
3.994151443,0.721891967,0.05138008,-0.231182954,,5.133999791,0.097730182,-0.926489361,-2.113357483,0.14527838
3.994212208,0.19751385,0.018517858,-0.070860652,,5.134208514,0.202416525,-0.898129008,-2.001034179,0.137471107
3.994387665,0.065771543,0.00658604,-0.024231278,,5.139283444,0.556140333,-0.787797894,-1.621244877,0.116641693
3.994387665,0.065771543,0.00658604,-0.024231278,,5.139479227,1.196443812,-0.544248723,-0.925347063,0.090466329
3.994703802,0.852075206,0.056279985,-0.264714346,,5.139924488,0.522562205,-0.799034454,-1.657095902,0.118231342
3.99561724,0.981604563,0.059942444,-0.295596942,,5.144960121,0.016923862,-0.945806785,-2.198029468,0.151125566
3.99561724,0.981604563,0.059942444,-0.295596942,,5.145981109,1.10231932,-0.583277661,-1.027699845,0.093626362
3.996455636,1.109843449,0.062379321,-0.32375835,,5.147267615,1.575916991,-0.368353739,-0.494859179,0.068817771
3.996455636,1.109843449,0.062379321,-0.32375835,,5.147928628,1.547339106,-0.382796252,-0.527643809,0.070805247
3.997945974,1.238519335,0.06362093,-0.349561199,,5.149946945,1.037477893,-0.609435019,-1.097937299,0.095807487
4,2.5,-0.002534348,-0.472285934,,5.155149633,0.940232674,-0.647612224,-1.2029216,0.099146271
4,2.5,-0.002534348,-0.472285934,,5.158547189,1.643961528,-0.331648895,-0.413221549,0.06135193
4,2.5,-0.002534348,-0.472285934,,5.158587023,1.897541627,-0.170868012,-0.112915026,0.024619811
4.000329366,1.366092743,0.063628064,-0.372682761,,5.159288648,1.734695113,-0.280345697,-0.306560109,0.051755202
4.003605812,1.492563672,0.062379598,-0.393159903,,5.161742097,1.47735627,-0.416347234,-0.604458666,0.073494533
4.003605812,1.492563672,0.062379598,-0.393159903,,5.164275914,1.385496131,-0.459549156,-0.708006937,0.078563622
4.004233584,2.164259071,0.031349538,-0.463482876,,5.165381786,0.674389026,-0.745739106,-1.488293612,0.109266585
4.0065307,1.616178135,0.059881821,-0.410899618,,5.166268671,1.987386916,-0.081581999,-0.013053481,0.002521119
4.0065307,1.616178135,0.059881821,-0.410899618,,5.167778233,0.574199593,-0.780320475,-1.59547204,0.113695154
4.007516822,2.390707596,0.009869007,-0.470613455,,5.16907702,0.506194232,-0.802996813,-1.668152886,0.11695322
4.011068472,1.741107586,0.055988827,-0.426339292,,5.170047526,1.780228501,-0.251131538,-0.250419489,0.043857211
4.015033643,2.281415192,0.020882201,-0.466955015,,5.170513747,0.405676078,-0.835270757,-1.775556359,0.122207776
4.015033643,2.281415192,0.020882201,-0.466955015,,5.170720824,1.263390603,-0.514023109,-0.843411425,0.083992713
4.017454676,1.86360716,0.050731358,-0.438930522,,5.173182753,0.134779101,-0.913773067,-2.065368182,0.139524606
4.025689313,1.983676856,0.044076686,-0.448709389,,5.17369529,1.803599203,-0.235566992,-0.222340888,0.039711548
4.025689313,1.983676856,0.044076686,-0.448709389,,5.173728223,0.034109638,-0.93922948,-2.173612262,0.147411804
4.031139185,2.099280871,0.036177549,-0.456181981,,5.175153466,1.0893955,-0.587371605,-1.035007038,0.091236238
4.031139185,2.099280871,0.036177549,-0.456181981,,5.176384785,1.339942119,-0.479702199,-0.756432968,0.079491195
4.031760652,0.525856755,0.041665205,-0.175026956,,5.176399165,1.844319738,-0.207365729,-0.173697667,0.032578784
4.031760652,0.525856755,0.041665205,-0.175026956,,5.177758765,1.313910633,-0.491340321,-0.785312186,0.080679182
4.031774621,0.656031623,0.048455943,-0.212045629,,5.177868934,1.05672525,-0.600549055,-1.070272969,0.092332876
4.031774621,0.656031623,0.048455943,-0.212045629,,5.178197852,1.165584885,-0.555626846,-0.950270868,0.08764379
4.031965903,0.786868745,0.054008781,-0.246731684,,5.179161428,1.632263286,-0.336141926,-0.422345485,0.059074524
4.031965903,0.786868745,0.054008781,-0.246731684,,5.182413131,1.491680705,-0.408010049,-0.583352257,0.069643742
4.032065572,0.394582119,0.033486091,-0.135156886,,5.182773549,1.97407003,-0.090987536,-0.025812917,0.00410323
4.032065572,0.394582119,0.033486091,-0.135156886,,5.192609284,0.9777704,-0.631426792,-1.153349565,0.094226054
4.032078134,0.263285393,0.023895062,-0.092739378,,5.197243793,0.876610473,-0.670321611,-1.262496744,0.098043055
4.032078134,0.263285393,0.023895062,-0.092739378,,5.197411047,0.558424315,-0.784205368,-1.605922459,0.112269812
4.032253591,0.131543086,0.012756946,-0.047614186,,5.198068789,0.523997082,-0.795649303,-1.642748498,0.113937735
4.032253591,0.131543086,0.012756946,-0.047614186,,5.20223538,1.92386549,-0.137735996,-0.079747662,0.012513977
4.032608696,0,0,0,,5.20233076,0.744444948,-0.719080316,-1.40452685,0.103283304
4.032879341,0.916398102,0.058281332,-0.278558668,,5.202681146,0.017185776,-0.940850955,-2.186071842,0.146516422
4.032879341,0.916398102,0.058281332,-0.278558668,,5.20277212,1.154698092,-0.559101328,-0.956710608,0.085540246
4.033195436,1.045750115,0.061343651,-0.307911531,,5.203973961,1.718542984,-0.28475275,-0.317060672,0.045955481
4.033195436,1.045750115,0.061343651,-0.307911531,,5.20559781,0.640312879,-0.755842183,-1.516098775,0.107735524
4.034556132,1.172875874,0.063174609,-0.334309605,,5.20838558,1.986683114,-0.07482452,-0.013806659,0.001988257
4.034556132,1.172875874,0.063174609,-0.334309605,,5.209177915,1.578516345,-0.362029163,-0.478146306,0.059159265
4.03604647,1.30155176,0.06381157,-0.358604431,,5.209373431,0.442670114,-0.821440013,-1.727603824,0.117376639
4.03604647,1.30155176,0.06381157,-0.358604431,,5.20973474,1.55444285,-0.374505174,-0.505692259,0.061065495
4.036064041,2.438953659,0.003824702,-0.466510669,,5.210091434,0.3381411,-0.853740066,-1.839539564,0.12328308
4.036064041,2.438953659,0.003824702,-0.466510669,,5.210586092,1.404199193,-0.448146329,-0.67640926,0.071510384
4.039322916,1.42802269,0.06320062,-0.379965881,,5.211305923,0.826042827,-0.688737149,-1.314266549,0.098998438
4.039322916,1.42802269,0.06320062,-0.379965881,,5.211418344,0.203463287,-0.892498662,-1.983753835,0.131795844
4.041465723,1.55375036,0.061313015,-0.398939002,,5.212390405,0.797866666,-0.699133146,-1.344555386,0.100129845
4.041465723,1.55375036,0.061313015,-0.398939002,,5.212761424,0.098797982,-0.920109423,-2.096030782,0.139235378
4.041666667,2.479166667,-0.00110463,-0.465547772,,5.216130264,0.993984027,-0.624026245,-1.130395708,0.091347757
4.041939244,2.216436992,0.026507454,-0.460706767,,5.218609758,1.252182487,-0.516551742,-0.845070173,0.07907794
4.043580862,2.329661255,0.015641923,-0.464015898,,5.220865086,1.622164971,-0.337697104,-0.425677779,0.053477388
4.045172692,1.675251615,0.058197579,-0.414879523,,5.222179817,0.285351544,-0.8686041,-1.893669354,0.125643703
4.045172692,1.675251615,0.058197579,-0.414879523,,5.222462698,0.256639792,-0.87685123,-1.92442169,0.127451743
4.049710464,1.800181067,0.053571363,-0.428848542,,5.223476976,1.509243762,-0.396379123,-0.554553676,0.062622604
4.049710464,1.800181067,0.053571363,-0.428848542,,5.223810494,1.934490525,-0.123894767,-0.068006456,0.008921659
4.057945101,1.920250762,0.047642821,-0.439526961,,5.2245882,1.706844742,-0.289160233,-0.327090939,0.043993624
4.057945101,1.920250762,0.047642821,-0.439526961,,5.2252759,1.855021444,-0.190872594,-0.155750267,0.022711611
4.061955624,2.038334004,0.040310018,-0.448235995,,5.230559958,0.627024069,-0.759262972,-1.525072886,0.106451098
4.061955624,2.038334004,0.040310018,-0.448235995,,5.231257125,1.418523628,-0.440062832,-0.655883659,0.067935477
4.068844844,2.151458793,0.031746949,-0.454014662,,5.233795575,0.457666914,-0.815342532,-1.706415908,0.114782027
4.068844844,2.151458793,0.031746949,-0.454014662,,5.235716609,1.775196195,-0.245177757,-0.246557019,0.03352538
4.069575112,0.590833534,0.045215024,-0.192726115,,5.237150844,0.084541626,-0.921834296,-2.106574754,0.138422611
4.069589081,0.721008401,0.051369669,-0.228219358,,5.240046907,1.802939786,-0.225844918,-0.214115327,0.02898753
4.069589081,0.721008401,0.051369669,-0.228219358,,5.243184026,1.241295693,-0.520023368,-0.851940641,0.07687319
4.069720587,0.460108782,0.037740558,-0.154552478,,5.244804617,1.348482996,-0.471935109,-0.73192113,0.070629264
4.070025507,0.328834145,0.028866924,-0.113663615,,5.246435683,1.317580762,-0.485925699,-0.766193987,0.072266226
4.070025507,0.328834145,0.028866924,-0.113663615,,5.246851014,1.865646478,-0.179017258,-0.142466961,0.018157146
4.070119516,0.197314629,0.01851679,-0.070133339,,5.247059292,0.89547325,-0.660980586,-1.231182108,0.092879873
4.070119516,0.197314629,0.01851679,-0.070133339,,5.248984308,1.095444835,-0.581580266,-1.012033864,0.083561602
4.070141441,0.851191641,0.05628041,-0.261187367,,5.251271769,1.067924005,-0.592747559,-1.041811286,0.084635368
4.070141441,0.851191641,0.05628041,-0.261187367,,5.253392371,0.730932233,-0.721644998,-1.408219013,0.099789353
4.070457536,0.980543654,0.059949391,-0.291476845,,5.254749404,1.145377282,-0.56052802,-0.955797558,0.080541793
4.070474621,0.065771543,0.00659304,-0.024020293,,5.255983571,1.679822331,-0.301570257,-0.353414449,0.042277769
4.071295932,1.108782541,0.062397642,-0.319045439,,5.258477355,1.988782095,-0.067121027,-0.011247349,0.000810806
4.072128081,2.377907318,0.009945397,-0.460401548,,5.259789111,1.947380329,-0.106848416,-0.053770265,0.005072685
4.072128081,2.377907318,0.009945397,-0.460401548,,5.260187976,1.761309096,-0.250972295,-0.259539917,0.031810197
4.072656628,1.2359083,0.063638955,-0.34395021,,5.26056831,0.355311675,-0.845583472,-1.810838753,0.118585194
4.072656628,1.2359083,0.063638955,-0.34395021,,5.261237244,1.452687559,-0.42155571,-0.611386511,0.061706435
4.07504002,1.363481707,0.063660473,-0.366469058,,5.262220262,0.187642955,-0.893340336,-1.990641045,0.129074714
4.07504002,1.363481707,0.063660473,-0.366469058,,5.265479167,1.016285709,-0.612927175,-1.095486831,0.085688132
4.077182827,1.489209377,0.062426012,-0.38631536,,5.265658938,1.81555287,-0.213300966,-0.197365889,0.023575339
4.077730707,2.418120326,0.005262429,-0.459779511,,5.269343406,1.365487675,-0.462557372,-0.708000639,0.066596479
4.079644903,2.268614914,0.021140658,-0.457098851,,5.270580272,0.911686877,-0.653700698,-1.208640443,0.090066857
4.079644903,2.268614914,0.021140658,-0.457098851,,5.272676321,0.558180378,-0.780523018,-1.59047249,0.10663663
4.080107715,1.61282384,0.059921444,-0.403458369,,5.273230392,0.529179498,-0.790095252,-1.621550885,0.108081801
4.083333333,2.458333333,0.000336577,-0.458820584,,5.27560804,1.304656941,-0.490057444,-0.774831248,0.069610732
4.083814684,1.734325096,0.056121139,-0.417976602,,5.276427288,0.014476989,-0.935485746,-2.174764659,0.140696987
4.083814684,1.734325096,0.056121139,-0.417976602,,5.277601253,1.89415844,-0.151266965,-0.110040924,0.010937807
4.090200888,1.856824669,0.050829258,-0.430013696,,5.27835452,0.717643423,-0.725229224,-1.417450965,0.098402756
4.090200888,1.856824669,0.050829258,-0.430013696,,5.282471389,0.612055389,-0.761867345,-1.530511576,0.103185399
4.094211411,1.974907911,0.044240461,-0.439604451,,5.283457812,1.776003398,-0.238174626,-0.240511732,0.026711142
4.099661283,2.090511926,0.036244262,-0.446603752,,5.284598477,1.802503581,-0.219938947,-0.210654924,0.023038251
4.106550504,2.203636715,0.026816911,-0.451033396,,5.284990454,0.370308475,-0.839631671,-1.78990745,0.115907235
4.106550504,2.203636715,0.026816911,-0.451033396,,5.285070358,0.476021361,-0.806717956,-1.67632942,0.109998644
4.107375603,0.525635444,0.041629033,-0.173046683,,5.285296967,0.832906372,-0.682856667,-1.291270489,0.092430845
4.107375603,0.525635444,0.041629033,-0.173046683,,5.285408657,1.627134341,-0.328653974,-0.409326843,0.043610796
4.107389572,0.655810312,0.048416293,-0.209522474,,5.285991001,1.212324072,-0.530321965,-0.875464593,0.073734734
4.107403542,0.78598518,0.053942514,-0.243477874,,5.286584367,0.799458172,-0.695193313,-1.327276526,0.093884632
4.107403542,0.78598518,0.053942514,-0.243477874,,5.286609683,0.173386599,-0.89547716,-2.001279948,0.128187574
4.107403542,0.78598518,0.053942514,-0.243477874,,5.287585869,0.067907009,-0.922090712,-2.114864676,0.13566498
4.107403542,0.78598518,0.053942514,-0.243477874,,5.288020548,1.514213131,-0.388758532,-0.53706758,0.05346717
4.107403542,0.78598518,0.053942514,-0.243477874,,5.290429002,1.711913988,-0.278366846,-0.312346022,0.033737212
4.107403542,0.78598518,0.053942514,-0.243477874,,5.292666884,1.584944368,-0.351179341,-0.456209161,0.046695641
4.107680523,0.394360808,0.033454459,-0.133696945,,5.293223709,1.560870873,-0.364005629,-0.483392989,0.048801645
4.107719637,0.915337193,0.058215689,-0.274715882,,5.295859161,1.35468856,-0.465856053,-0.715124976,0.064115487
4.107985442,0.263086172,0.023870214,-0.091774723,,5.296335548,0.289041526,-0.862915008,-1.875016171,0.119934206
4.107985442,0.263086172,0.023870214,-0.091774723,,5.29667136,0.254957522,-0.872569988,-1.911592042,0.122046517
4.107985442,0.263086172,0.023870214,-0.091774723,,5.297097927,1.423592875,-0.433104278,-0.637665836,0.059249704
4.107985442,0.263086172,0.023870214,-0.091774723,,5.299688014,1.865646478,-0.171293159,-0.140085592,0.012932838
4.107985442,0.263086172,0.023870214,-0.091774723,,5.300492729,1.324760061,-0.479374535,-0.74770679,0.065493369
4.107985442,0.263086172,0.023870214,-0.091774723,,5.307573327,0.952663507,-0.636075461,-1.156571159,0.084811767
4.108035732,1.044689207,0.061286608,-0.303477515,,5.310031092,1.724292204,-0.26842064,-0.296264255,0.029761025
4.108035732,1.044689207,0.061286608,-0.303477515,,5.311585089,1.947380329,-0.101639415,-0.053380243,0.003165329
4.108192122,2.316860977,0.01579754,-0.453968531,,5.313218955,0.852153729,-0.674334723,-1.264846678,0.089138287
4.108192122,2.316860977,0.01579754,-0.453968531,,5.315642341,1.854653992,-0.17765445,-0.15139808,0.012997784
4.108340547,0.131543086,0.012754129,-0.047181685,,5.31621718,0.783682894,-0.699579517,-1.338506752,0.092167117
4.108695652,0,0,0,,5.319420362,0.682111311,-0.735814287,-1.447690727,0.096840153
4.109396428,1.171814966,0.063123604,-0.329271515,,5.319434322,1.414495896,-0.43590446,-0.644078642,0.05718885
4.110757125,1.298940725,0.063763273,-0.352670605,,5.321265721,1.250334759,-0.511639902,-0.826706809,0.067731614
4.110757125,1.298940725,0.063763273,-0.352670605,,5.324648045,0.408486383,-0.825723368,-1.74124584,0.110768023
4.110757125,1.298940725,0.063763273,-0.352670605,,5.325327317,0.306844376,-0.856011042,-1.85037731,0.116669131
4.110757125,1.298940725,0.063763273,-0.352670605,,5.325476944,1.988782095,-0.063214208,-0.011261908,0.000371309
4.110757125,1.298940725,0.063763273,-0.352670605,,5.325624283,0.23803366,-0.875433207,-1.924338313,0.120933424
4.110757125,1.298940725,0.063763273,-0.352670605,,5.32582146,0.136591195,-0.902329123,-2.033596159,0.127669021
4.112899931,1.424668395,0.063168949,-0.373394455,,5.328491199,1.643760556,-0.314798742,-0.38492087,0.036252164
4.113794748,2.357073985,0.011371753,-0.453682426,,5.331292692,1.154238255,-0.552760982,-0.931095083,0.072185979
4.115042738,1.550396065,0.06128656,-0.391762883,,5.331742903,1.503177974,-0.390823745,-0.542655578,0.048819172
4.115042738,1.550396065,0.06128656,-0.391762883,,5.339059009,1.779130112,-0.229126397,-0.232860135,0.01996733
4.118749707,1.671897321,0.058153556,-0.407101394,,5.340019884,1.801453389,-0.213659318,-0.208294294,0.017248001
4.119397374,2.397286992,0.00670337,-0.453065226,,5.342022455,1.025146681,-0.605596678,-1.070842577,0.078011269
4.122456676,1.793398576,0.053628623,-0.420179345,,5.342228135,1.267269265,-0.502814039,-0.804237571,0.064421002
4.122456676,1.793398576,0.053628623,-0.420179345,,5.343647084,1.934490525,-0.11022264,-0.06646594,0.0031858
4.122456676,1.793398576,0.053628623,-0.420179345,,5.343883372,0.837706443,-0.678258536,-1.274657925,0.087221339
4.122456676,1.793398576,0.053628623,-0.420179345,,5.345594198,0.802683808,-0.691173562,-1.312307992,0.088797845
4.122456676,1.793398576,0.053628623,-0.420179345,,5.347930824,1.737884656,-0.255379055,-0.277843548,0.023779153
4.122456676,1.793398576,0.053628623,-0.420179345,,5.347995256,1.106906758,-0.571768917,-0.980137465,0.073110935
4.125,2.4375,0.001786877,-0.452111288,,5.34809329,1.656138772,-0.305563881,-0.368880203,0.032597354
4.126467199,1.911481818,0.047782064,-0.430639379,,5.348661967,0.920725942,-0.646466501,-1.18354962,0.082698065
4.130477722,2.02956506,0.040387451,-0.438868991,,5.350282717,1.079385929,-0.583055438,-1.009926886,0.074375871
4.130477722,2.02956506,0.040387451,-0.438868991,,5.352437989,1.84259614,-0.18251688,-0.163116727,0.011517584
4.137366942,2.142689848,0.03170192,-0.444172978,,5.354079297,1.494080995,-0.393627436,-0.549628301,0.046867926
4.144256163,2.255814636,0.021351978,-0.447222068,,5.354672474,0.255412004,-0.868783621,-1.90028843,0.117616513
4.144256163,2.255814636,0.021351978,-0.447222068,,5.354711321,0.290138716,-0.859011791,-1.862909183,0.115465834
4.144256163,2.255814636,0.021351978,-0.447222068,,5.354801722,1.591895556,-0.341528555,-0.440017263,0.038139782
4.144256163,2.255814636,0.021351978,-0.447222068,,5.355462734,1.563317672,-0.357098062,-0.471950424,0.04070804
4.144256163,2.255814636,0.021351978,-0.447222068,,5.358162476,0.720263675,-0.720412006,-1.39914437,0.091849181
4.144256163,2.255814636,0.021351978,-0.447222068,,5.35960141,1.923498039,-0.118347299,-0.077744011,0.003493028
4.144256163,2.255814636,0.021351978,-0.447222068,,5.360706927,0.614624016,-0.757044643,-1.512671814,0.096989758
4.144981737,0.850130732,0.056146597,-0.257623327,,5.361695515,1.365399775,-0.45635441,-0.692066329,0.05578888
4.144981737,0.850130732,0.056146597,-0.257623327,,5.363305896,0.478589988,-0.801663357,-1.658653919,0.103971274
4.145190063,0.590612223,0.045124989,-0.190471575,,5.364324058,0.067907009,-0.916475057,-2.100890485,0.129395122
4.145204032,0.720787091,0.051269684,-0.225406329,,5.36479841,0.372928728,-0.834217339,-1.772019858,0.10978434
4.145204032,0.720787091,0.051269684,-0.225406329,,5.364890196,0.173386599,-0.890213238,-1.986826317,0.122103578
4.145297833,0.979482746,0.059818713,-0.287329618,,5.365598749,1.340188546,-0.467943552,-0.719480469,0.057104503
4.145335538,0.459887471,0.037663227,-0.152831982,,5.366010258,1.410016485,-0.43464231,-0.641760086,0.052067204
4.145640458,0.328612835,0.028804561,-0.11245103,,5.373876243,0.561502971,-0.774184226,-1.567485408,0.098731892
4.145640458,0.328612835,0.028804561,-0.11245103,,5.374430313,0.532502091,-0.783691397,-1.598607874,0.100223706
4.146136228,1.107721632,0.062270622,-0.314295995,,5.37449312,0.908555809,-0.649860219,-1.192082908,0.081041501
4.146206473,0.197314629,0.018489254,-0.069469539,,5.374930934,1.986683114,-0.063732146,-0.013364073,0.000170218
4.146206473,0.197314629,0.018489254,-0.069469539,,5.375690346,0.014476989,-0.927902365,-2.156824687,0.132311872
4.146561578,0.065771543,0.006584373,-0.023808371,,5.377355911,1.685196665,-0.28518533,-0.333855841,0.026296402
4.147496925,1.234847391,0.063514114,-0.338580625,,5.378071558,1.606589859,-0.331108552,-0.421053651,0.034039476
4.147496925,1.234847391,0.063514114,-0.338580625,,5.379864763,1.17519908,-0.541006869,-0.899529853,0.066068392
4.148617035,1.360127413,0.063546382,-0.360178078,,5.381978489,1.552518558,-0.360542406,-0.480818712,0.038591434
4.148617035,1.360127413,0.063546382,-0.360178078,,5.382909147,0.736269703,-0.713450516,-1.377324514,0.08904383
4.149858789,2.296027644,0.017193292,-0.447266752,,5.384319105,1.291758526,-0.489045801,-0.770215029,0.05833651
4.149858789,2.296027644,0.017193292,-0.447266752,,5.386421825,1.895818029,-0.138559098,-0.106207946,0.004568375
4.150759842,1.485855083,0.062324215,-0.379422546,,5.38935987,0.188025803,-0.884786018,-1.966711839,0.119222345
4.15368473,1.609469545,0.059816274,-0.395955453,,5.389550966,0.35885618,-0.836976384,-1.782710744,0.108728625
4.155461415,2.336240652,0.012792908,-0.446986158,,5.392793562,1.471542057,-0.401975184,-0.569581171,0.044264787
4.155461415,2.336240652,0.012792908,-0.446986158,,5.393222907,1.014485015,-0.607190536,-1.07338517,0.073824869
4.157391699,1.730970801,0.05598815,-0.409857668,,5.393870473,1.973633825,-0.074470672,-0.026448986,0.000313964
4.157391699,1.730970801,0.05598815,-0.409857668,,5.398165059,1.595454996,-0.335480568,-0.431370058,0.032871754
4.158722986,1.848055725,0.050925529,-0.421351602,,5.400827177,1.192133587,-0.53240899,-0.877483997,0.062956441
4.158722986,1.848055725,0.050925529,-0.421351602,,5.401410978,1.569961579,-0.349297638,-0.459287043,0.034859766
4.161064041,2.376453659,0.008144986,-0.446374735,,5.405811904,1.738954128,-0.248533623,-0.272937991,0.018035898
4.161064041,2.376453659,0.008144986,-0.446374735,,5.407137694,1.657229739,-0.299003521,-0.362323732,0.026033806
4.162733509,1.966138967,0.044307154,-0.430464048,,5.410319069,1.843665613,-0.176085605,-0.160456239,0.007702112
4.166666667,2.416666667,0.003243798,-0.445426802,,5.411567836,0.632966914,-0.748159273,-1.483754497,0.092070816
4.166666667,2.416666667,0.003243798,-0.445426802,,5.413929853,1.780513506,-0.220217419,-0.227615797,0.013257341
4.168183381,2.081742982,0.036226441,-0.436983424,,5.414694416,0.084541626,-0.909016244,-2.074174171,0.12406737
4.175072601,2.19486777,0.026648862,-0.440929219,,5.414803453,0.46360976,-0.803572728,-1.665570838,0.100884117
4.175072601,2.19486777,0.026648862,-0.440929219,,5.414890728,1.802836783,-0.204790279,-0.203662852,0.011068402
4.182540438,0.785924882,0.053782942,-0.240427539,,5.41631495,1.986950711,-0.062999915,-0.013098147,1.69136E-05
4.182540438,0.785924882,0.053782942,-0.240427539,,5.418645815,1.924589006,-0.113845224,-0.076230369,0.00176513
4.182559933,0.914276285,0.05801555,-0.270856968,,5.41905406,1.002314882,-0.610673925,-1.082307859,0.07213877
4.182559933,0.914276285,0.05801555,-0.270856968,,5.421271592,1.117887168,-0.563013879,-0.955697368,0.065402379
4.182876029,1.043628298,0.061085913,-0.299019815,,5.421427089,0.840616653,-0.673241944,-1.257635388,0.080528219
4.182876029,1.043628298,0.061085913,-0.299019815,,5.422868257,0.811114215,-0.684154265,-1.289350554,0.081941452
4.182990554,0.525414134,0.041496841,-0.171058297,,5.423662099,1.50774702,-0.380717687,-0.525777693,0.037915505
4.182990554,0.525414134,0.041496841,-0.171058297,,5.42398706,1.085216919,-0.576541005,-0.991008592,0.067043918
4.183004523,0.655589002,0.048264594,-0.206986905,,5.424064098,1.647849931,-0.302915783,-0.371289199,0.025257705
4.183004523,0.655589002,0.048264594,-0.206986905,,5.428739156,0.895577234,-0.65202384,-1.196795883,0.077024351
4.183295473,0.394139498,0.033345556,-0.132232372,,5.429505836,0.258875517,-0.86319593,-1.883416869,0.111637437
4.183295473,0.394139498,0.033345556,-0.132232372,,5.429538559,0.288128674,-0.855043249,-1.851896565,0.109861101
4.183836052,0.263156749,0.023810656,-0.09089645,,5.429620796,1.233672708,-0.512296284,-0.827400529,0.05748699
4.183836052,0.263156749,0.023810656,-0.09089645,,5.434222102,1.423413254,-0.422872447,-0.617706575,0.043620255
4.184236725,1.170754057,0.062922166,-0.324200915,,5.435499224,0.757190563,-0.703221876,-1.345543294,0.08371153
4.184236725,1.170754057,0.062922166,-0.324200915,,5.436314507,0.648972942,-0.741371478,-1.462234128,0.089297083
4.184427504,0.131543086,0.012720884,-0.046747767,,5.437552638,1.935806911,-0.104110487,-0.064720619,0.000893314
4.184427504,0.131543086,0.012720884,-0.046747767,,5.43916409,0.099180829,-0.903864183,-2.054226621,0.121057226
4.184698274,1.297753651,0.063563898,-0.347008833,,5.439556009,0.449537212,-0.806597453,-1.676462756,0.099780228
4.184698274,1.297753651,0.063563898,-0.347008833,,5.440031678,1.522440707,-0.371570982,-0.507825258,0.034970943
4.184782609,0,0,0,,5.440601017,0.205259105,-0.876985054,-1.939358568,0.114087563
4.186476946,1.4213141,0.062986172,-0.36679266,,5.440754513,0.34247648,-0.83880473,-1.791480547,0.105782379
4.186476946,1.4213141,0.062986172,-0.36679266,,5.44394634,1.726766565,-0.25265853,-0.284152887,0.016034556
4.188619753,1.54704177,0.0611111,-0.384544019,,5.446156281,1.137990288,-0.553008228,-0.929859854,0.061857753
4.188619753,1.54704177,0.0611111,-0.384544019,,5.446938825,1.601363277,-0.32766014,-0.420452992,0.027352861
4.191525455,2.275194311,0.018575186,-0.440593903,,5.448970451,0.566683506,-0.768481097,-1.548772641,0.092676115
4.191525455,2.275194311,0.018575186,-0.440593903,,5.449425958,0.017185776,-0.92204636,-2.141471041,0.125754285
4.192326722,1.668543026,0.057965645,-0.399268114,,5.449557589,1.857128353,-0.163265617,-0.145637224,0.004775515
4.192326722,1.668543026,0.057965645,-0.399268114,,5.449628193,0.532256274,-0.779734691,-1.585732974,0.094478913
4.194889605,1.790023613,0.05340892,-0.411841673,,5.449673129,1.579888082,-0.339485682,-0.44377052,0.02901773
4.194889605,1.790023613,0.05340892,-0.411841673,,5.449929501,1.382728882,-0.441636714,-0.660638389,0.045106801
4.194989297,1.902712874,0.047817241,-0.42173336,,5.452530949,1.305155295,-0.478242007,-0.745631981,0.050426247
4.194989297,1.902712874,0.047817241,-0.42173336,,5.453832735,1.357517653,-0.453481991,-0.687888797,0.046573653
4.197128081,2.315407318,0.014206147,-0.440319663,,5.454651477,1.070769633,-0.580768611,-1.002004454,0.065057641
4.198938976,2.235492241,0.022430509,-0.43864027,,5.456752358,1.641198931,-0.303795366,-0.376201877,0.022846596
4.198938976,2.235492241,0.022430509,-0.43864027,,5.460872744,1.717386757,-0.257080989,-0.293470004,0.015586696
4.19899982,2.020796116,0.040374574,-0.42947591,,5.463188284,0.968060408,-0.621900158,-1.112506605,0.070131174
4.19899982,2.020796116,0.040374574,-0.42947591,,5.468464413,1.868346258,-0.153901019,-0.133752643,0.003338635
4.202730707,2.355620326,0.00958467,-0.439714971,,5.469569269,1.779442192,-0.216005762,-0.226860749,0.009649354
4.20588904,2.133920904,0.031579705,-0.434300798,,5.469578118,1.540465532,-0.359389496,-0.48522749,0.03053366
4.20588904,2.133920904,0.031579705,-0.434300798,,5.470012054,1.989007514,-0.061393432,-0.010998349,-0.00013887
4.208333333,2.395833333,0.004704793,-0.438774057,,5.470409979,1.205799611,-0.522038133,-0.852161588,0.055339392
4.220118634,0.850070434,0.055914222,-0.254274609,,5.470709934,1.805942375,-0.197916958,-0.198861175,0.007493832
4.220138129,0.978421837,0.059547167,-0.283170368,,5.4751078,1.9484377,-0.093253928,-0.051816859,3.38139E-05
4.220138129,0.978421837,0.059547167,-0.283170368,,5.476785788,0.689703267,-0.725084224,-1.411608901,0.083969989
4.220340929,0.720726793,0.051057878,-0.222642089,,5.47725111,1.445491027,-0.408431206,-0.588562899,0.03758391
4.220805014,0.590390913,0.044929696,-0.188211017,,5.478347468,0.58568442,-0.760595598,-1.523467466,0.089395395
4.220805014,0.590390913,0.044929696,-0.188211017,,5.47847415,0.03456412,-0.916224166,-2.117912991,0.122058258
4.220950489,0.459666161,0.037498172,-0.151108246,,5.479012196,0.515550613,-0.783542275,-1.598871261,0.093138952
4.220950489,0.459666161,0.037498172,-0.151108246,,5.479103615,0.136574919,-0.892137087,-2.007251685,0.115344887
4.220976525,1.106660723,0.061994464,-0.309527649,,5.479354053,1.128052196,-0.555221701,-0.935865491,0.059390796
4.220976525,1.106660723,0.061994464,-0.309527649,,5.479412363,0.412580085,-0.81572556,-1.709626622,0.098814862
4.221438074,1.233660317,0.063237926,-0.33322402,,5.485133781,1.09350179,-0.569483678,-0.97270871,0.060961287
4.221491067,0.328683412,0.028695601,-0.111325268,,5.485208351,1.694956394,-0.268922892,-0.316416821,0.015734003
4.222057082,0.197385206,0.018423712,-0.068830086,,5.489662771,1.768307329,-0.221781783,-0.238042306,0.009361196
4.222558184,1.358940339,0.063267746,-0.354189252,,5.493154412,1.819259261,-0.187138938,-0.184410619,0.005461955
4.222648534,0.065771543,0.006559719,-0.02359618,,5.493620689,1.460184714,-0.399652976,-0.570827197,0.034872156
4.222648534,0.065771543,0.006559719,-0.02359618,,5.498375185,1.197427941,-0.523937786,-0.85756137,0.053286232
4.224336857,1.482500788,0.062069814,-0.372505703,,5.499005045,1.896285284,-0.131919989,-0.104784189,0.001120923
4.224336857,1.482500788,0.062069814,-0.372505703,,5.500044923,1.298264396,-0.47813649,-0.747208332,0.046347593
4.227261745,1.606115251,0.059562325,-0.388417031,,5.501129534,1.008315704,-0.603636419,-1.063073114,0.064572139
4.227261745,1.606115251,0.059562325,-0.388417031,,5.507309061,0.017378344,-0.918099159,-2.132067817,0.120691661
4.229755415,2.174545375,0.027686108,-0.43243553,,5.507632389,1.649385645,-0.294516153,-0.364254885,0.017946143
4.229824628,1.727595837,0.055721656,-0.40181113,,5.508649138,0.569090016,-0.764469292,-1.536510207,0.087962661
4.231155915,1.844680761,0.050614071,-0.412699632,,5.508656124,0.533383442,-0.776162896,-1.574945131,0.089901972
4.231255607,1.957370022,0.044276382,-0.421314481,,5.509197535,0.901459825,-0.645393548,-1.177751604,0.069935022
4.231255607,1.957370022,0.044276382,-0.421314481,,5.510794868,1.780785529,-0.211957555,-0.224342836,0.007291676
4.236705479,2.072974037,0.03612598,-0.427348442,,5.511006659,1.49233673,-0.381597523,-0.53415003,0.030718244
4.236705479,2.072974037,0.03612598,-0.427348442,,5.512753611,1.611953027,-0.31588428,-0.404286739,0.020691951
4.238794748,2.294573985,0.015608604,-0.433689934,,5.512775389,1.725738012,-0.247425628,-0.282407068,0.011324753
4.238794748,2.294573985,0.015608604,-0.433689934,,5.513145844,1.805237278,-0.195412976,-0.19869586,0.005507796
4.244397374,2.334786992,0.011019703,-0.433092906,,5.515188272,1.397764679,-0.429367842,-0.636844802,0.037712369
4.246208269,2.254871915,0.019645611,-0.432016116,,5.515487915,1.590477832,-0.327868006,-0.427301557,0.022267557
4.25,2.375,0.00616727,-0.432160028,,5.515957603,0.763073153,-0.696817079,-1.326318411,0.076949603
4.25362179,2.215169845,0.023482347,-0.430114804,,5.518389981,0.654973764,-0.734937051,-1.442505531,0.082580026
4.25362179,2.215169845,0.023482347,-0.430114804,,5.518458604,0.206028714,-0.87198495,-1.926003093,0.107862975
4.257677334,0.785864584,0.053496817,-0.237370022,,5.518586499,0.099965907,-0.898524634,-2.040684239,0.114408139
4.257677334,0.785864584,0.053496817,-0.237370022,,5.5186121,0.34324609,-0.834072089,-1.77804221,0.099762921
4.257696829,0.914215987,0.057705157,-0.26720486,,5.518978419,0.450322289,-0.801936302,-1.662725343,0.093686812
4.257716325,1.04256739,0.060738478,-0.29455539,,5.51982184,1.36783618,-0.443665102,-0.669013554,0.039526693
4.257716325,1.04256739,0.060738478,-0.29455539,,5.520458149,1.548652246,-0.350676436,-0.472227896,0.025320781
4.257716325,1.04256739,0.060738478,-0.29455539,,5.525301372,1.868346258,-0.151017405,-0.133213359,0.001615709
4.257716325,1.04256739,0.060738478,-0.29455539,,5.52550232,0.848225953,-0.664799378,-1.232931436,0.071547127
4.257716325,1.04256739,0.060738478,-0.29455539,,5.526807278,1.027464864,-0.594351786,-1.03866406,0.061256294
4.257716325,1.04256739,0.060738478,-0.29455539,,5.526943489,0.818723516,-0.675769901,-1.264590685,0.073050771
4.258141419,0.655528704,0.048008495,-0.204506315,,5.528010128,1.289892726,-0.480067679,-0.753084182,0.044377195
4.258177874,1.169566983,0.062570487,-0.319152896,,5.530216868,0.259871029,-0.856871698,-1.866095091,0.103717721
4.258605505,0.525192824,0.041267158,-0.169069041,,5.530249591,0.289124185,-0.848794893,-1.834553342,0.101998961
4.258605505,0.525192824,0.041267158,-0.169069041,,5.530576687,1.736249423,-0.239413175,-0.270704371,0.009483224
4.258605505,0.525192824,0.041267158,-0.169069041,,5.530824927,1.9484377,-0.092645545,-0.051753881,-0.000500104
4.258605505,0.525192824,0.041267158,-0.169069041,,5.534620761,1.415207701,-0.419237203,-0.615960574,0.034661469
4.258605505,0.525192824,0.041267158,-0.169069041,,5.541781528,1.666790935,-0.281380206,-0.343966741,0.01412286
4.258605505,0.525192824,0.041267158,-0.169069041,,5.542083762,1.989007514,-0.062429286,-0.011003638,-0.000243882
4.258639423,1.296566577,0.06320956,-0.341327864,,5.542141794,1.856534393,-0.158570588,-0.14520661,0.001680397
4.258639423,1.296566577,0.06320956,-0.341327864,,5.542876509,0.085488918,-0.900423229,-2.052687346,0.113277752
4.259146083,0.394210075,0.033177152,-0.130851979,,5.543915562,0.640994937,-0.738366335,-1.453706576,0.081367485
4.259686661,0.263227327,0.02369426,-0.090017281,,5.54394993,0.465344343,-0.795881128,-1.6427364,0.090953152
4.259686661,0.263227327,0.02369426,-0.090017281,,5.545523333,1.468535969,-0.391265352,-0.557103446,0.029624325
4.260278113,0.131613663,0.012663314,-0.046339383,,5.553019612,1.357898087,-0.446050864,-0.676475076,0.03732959
4.260418095,1.420127026,0.062625318,-0.360472848,,5.557749108,1.541381711,-0.351645616,-0.477506803,0.022920536
4.260571854,2.113598508,0.032553414,-0.425901101,,5.559582826,1.677302346,-0.273697304,-0.332070088,0.012198483
4.260869565,0,0,0,,5.559655068,1.411556599,-0.419168967,-0.617651054,0.032797181
4.260869565,0,0,0,,5.560643825,0.922165931,-0.634456379,-1.148047071,0.064563273
4.260869565,0,0,0,,5.560796795,1.194403832,-0.521193839,-0.853161062,0.047971397
4.262196768,1.543687476,0.060782558,-0.377308682,,5.561765268,1.621778645,-0.306266919,-0.391055298,0.016312162
4.262196768,1.543687476,0.060782558,-0.377308682,,5.564136273,1.143245339,-0.543388995,-0.908255323,0.050997274
4.262196768,1.543687476,0.060782558,-0.377308682,,5.564827423,1.778770503,-0.209750434,-0.225306686,0.004979931
4.262196768,1.543687476,0.060782558,-0.377308682,,5.565011187,1.596285228,-0.320589346,-0.418137029,0.018071697
4.262196768,1.543687476,0.060782558,-0.377308682,,5.566461306,1.935806911,-0.101703857,-0.064454531,-0.000731897
4.262196768,1.543687476,0.060782558,-0.377308682,,5.566611782,1.465460346,-0.391234611,-0.558761448,0.028136202
4.264759651,1.665168062,0.057639104,-0.391522089,,5.566807843,1.799368216,-0.196131229,-0.203890568,0.003732753
4.267322534,1.786648649,0.053055729,-0.403467369,,5.568708653,1.744262124,-0.231668768,-0.261244277,0.006978513
4.267322534,1.786648649,0.053055729,-0.403467369,,5.569005011,1.1141407,-0.555595316,-0.9392214,0.052427279
4.267422226,1.89933791,0.047408551,-0.412766725,,5.569059852,0.749879825,-0.698702625,-1.332773848,0.073506543
4.267521917,2.012027171,0.040272204,-0.420084255,,5.569493311,0.189806392,-0.873141727,-1.935834483,0.104748486
4.267521917,2.012027171,0.040272204,-0.420084255,,5.569684408,0.360636769,-0.826098302,-1.751596079,0.094848009
4.267521917,2.012027171,0.040272204,-0.420084255,,5.573420351,1.384175485,-0.431725921,-0.646085606,0.033688015
4.267521917,2.012027171,0.040272204,-0.420084255,,5.577998182,1.840879529,-0.16781302,-0.160951329,0.001384345
4.267521917,2.012027171,0.040272204,-0.420084255,,5.578837557,1.538306089,-0.351667613,-0.479467209,0.02158179
4.267521917,2.012027171,0.040272204,-0.420084255,,5.581011057,0.014639204,-0.914000292,-2.124040134,0.114383107
4.284438228,2.154222979,0.028685045,-0.424007729,,5.582897365,1.634256845,-0.297429487,-0.376800012,0.0139921
4.286064041,2.313953659,0.012447242,-0.426515617,,5.583301729,1.923995045,-0.110039078,-0.076343365,-0.000811061
4.286064041,2.313953659,0.012447242,-0.426515617,,5.58363452,1.057883104,-0.578401386,-0.998331176,0.054696874
4.291388292,2.052651642,0.037014677,-0.419049386,,5.583706948,1.265886419,-0.48733131,-0.773169373,0.041248505
4.291388292,2.052651642,0.037014677,-0.419049386,,5.585376868,0.567340444,-0.760871109,-1.52692831,0.082216452
4.291666667,2.354166667,0.007628547,-0.425591805,,5.585382753,0.537261868,-0.770712967,-1.55928061,0.083860059
4.293477562,2.274251589,0.016675309,-0.425127482,,5.586321569,0.941315091,-0.625463116,-1.12395674,0.061404311
4.294917674,1.10547365,0.061570298,-0.304789958,,5.590045493,1.592634126,-0.320738292,-0.420748367,0.016656382
4.294917674,1.10547365,0.061570298,-0.304789958,,5.591132691,1.698691375,-0.258477498,-0.308433387,0.008920459
4.29525553,0.850010136,0.055548236,-0.250923709,,5.593040427,0.06866791,-0.901242242,-2.063596508,0.110048816
4.295275025,0.978361539,0.059154153,-0.279210551,,5.593783321,0.175329403,-0.875406606,-1.947961365,0.103641419
4.295275025,0.978361539,0.059154153,-0.279210551,,5.594585433,0.735900998,-0.702328731,-1.344277112,0.072308587
4.295379223,1.232473243,0.062807159,-0.327863144,,5.594655918,0.375658823,-0.820281953,-1.731808101,0.092091074
4.295477825,0.720666494,0.050725523,-0.219877797,,5.59546841,1.986950711,-0.06512789,-0.013059126,-0.000370061
4.29594191,0.590330615,0.044638316,-0.186010333,,5.596518275,0.624132978,-0.741255489,-1.464274347,0.078276324
4.29594191,0.590330615,0.044638316,-0.186010333,,5.596545881,0.483043824,-0.787432917,-1.616003297,0.085990676
4.296499334,1.357753265,0.062831205,-0.348188917,,5.600811571,1.617154849,-0.30598541,-0.394182958,0.014156225
4.296801098,0.459736738,0.037261489,-0.149466967,,5.602590125,0.85662139,-0.657314221,-1.213184521,0.064969934
4.296801098,0.459736738,0.037261489,-0.149466967,,5.604300951,0.821598755,-0.670410461,-1.250693484,0.06680901
4.297341677,0.32875399,0.028517927,-0.110200357,,5.605016612,0.257886614,-0.853062876,-1.85722262,0.097958616
4.297907692,0.197455784,0.018313598,-0.068191221,,5.605055459,0.292613326,-0.843512317,-1.819774668,0.095974842
4.298278006,1.481313714,0.061624298,-0.365851708,,5.609818064,1.893031946,-0.131290686,-0.10760773,-0.000736602
4.298278006,1.481313714,0.061624298,-0.365851708,,5.609925954,1.477909951,-0.381482527,-0.542265361,0.023897776
4.298499144,0.06584212,0.006525777,-0.023409821,,5.615459843,1.972928729,-0.075559234,-0.027097646,-0.000714765
4.298499144,0.06584212,0.006525777,-0.023409821,,5.61670829,1.673336773,-0.272034839,-0.33429266,0.009335536
4.299694674,1.602740287,0.059165278,-0.380980195,,5.616771423,1.442223927,-0.39941458,-0.580073783,0.026038962
4.299694674,1.602740287,0.059165278,-0.380980195,,5.617141831,1.308629406,-0.465049618,-0.723789854,0.03559853
4.300891082,2.23454952,0.020694505,-0.423508182,,5.619377444,1.534225467,-0.350831029,-0.481476053,0.019072203
4.302257557,1.724220874,0.055315387,-0.393748214,,5.624708601,1.740374682,-0.230716858,-0.264071285,0.004837488
4.303588844,1.841305798,0.050173969,-0.404020809,,5.628367049,1.419158569,-0.410280615,-0.604001946,0.026874732
4.303688536,1.953995059,0.043764179,-0.412033824,,5.629643771,0.991282521,-0.602956859,-1.064708915,0.055060874
4.303688536,1.953995059,0.043764179,-0.412033824,,5.631798894,1.658930359,-0.279556286,-0.348944438,0.009534571
4.308304603,2.19484745,0.024504643,-0.421661638,,5.632395416,0.138121705,-0.882444642,-1.982807668,0.102653449
4.308304603,2.19484745,0.024504643,-0.421661638,,5.633072429,0.879353547,-0.646899685,-1.184837605,0.061332172
4.315254667,2.093276113,0.033476536,-0.417577234,,5.633851524,0.240700837,-0.85605203,-1.871755497,0.096665359
4.315254667,2.093276113,0.033476536,-0.417577234,,5.633998129,1.836992088,-0.168383831,-0.164472609,0.000221435
4.332102865,1.042852873,0.060270896,-0.290395353,,5.634327045,1.330765012,-0.453300778,-0.698479203,0.032732035
4.332102865,1.042852873,0.060270896,-0.290395353,,5.63460262,0.805004351,-0.674892507,-1.264644562,0.06542607
4.332119023,1.16837991,0.062065799,-0.314114001,,5.634699386,0.310446154,-0.836845343,-1.796442293,0.09266901
4.332119023,1.16837991,0.062065799,-0.314114001,,5.63569009,0.697502864,-0.713724487,-1.380093945,0.071310997
4.332580572,1.295379503,0.062697129,-0.33565093,,5.635745618,0.413709828,-0.806648195,-1.685140172,0.08685134
4.332580572,1.295379503,0.062697129,-0.33565093,,5.637264968,1.773741985,-0.20911614,-0.22933803,0.002669795
4.33281423,0.785804285,0.053082706,-0.234317807,,5.638418271,1.985978017,-0.06695445,-0.014034156,-0.000440219
4.33281423,0.785804285,0.053082706,-0.234317807,,5.638638649,1.572517045,-0.328447293,-0.439826576,0.015097943
4.332833726,0.914155688,0.057254607,-0.263556854,,5.639245388,1.794339698,-0.195904535,-0.208107825,0.001682447
4.332833726,0.914155688,0.057254607,-0.263556854,,5.640427193,1.920029472,-0.112545992,-0.080250776,-0.001294008
4.333278316,0.655468405,0.047638762,-0.202031379,,5.647707799,1.59317286,-0.316277047,-0.417600096,0.013137034
4.333278316,0.655468405,0.047638762,-0.202031379,,5.648172377,1.212771351,-0.507212038,-0.824167503,0.039717551
4.333333333,2.333333333,0.009085822,-0.419076618,,5.65976696,1.931021958,-0.105091194,-0.069152599,-0.001405605
4.333333333,2.333333333,0.009085822,-0.419076618,,5.660139696,1.727255332,-0.236873084,-0.2769981,0.004241755
4.333333333,2.333333333,0.009085822,-0.419076618,,5.661917979,1.631115412,-0.29376332,-0.377159937,0.00986242
4.334138027,0.525619152,0.040975985,-0.167268328,,5.663317654,0.258036719,-0.849728223,-1.849087325,0.09336885
4.334138027,0.525619152,0.040975985,-0.167268328,,5.66412667,0.293055324,-0.840070517,-1.811228606,0.09135795
4.334359244,1.418939953,0.062104449,-0.354150581,,5.664317396,1.369717599,-0.432311914,-0.654379461,0.02782818
4.334359244,1.418939953,0.062104449,-0.354150581,,5.665324075,0.823329667,-0.666324896,-1.241154857,0.062088876
4.334996692,0.394280652,0.032929017,-0.129475128,,5.66550471,0.862656228,-0.651438371,-1.198880113,0.059839509
4.334996692,0.394280652,0.032929017,-0.129475128,,5.668548813,1.511446864,-0.359550366,-0.503115663,0.017598216
4.335004224,1.542421088,0.060261867,-0.370413276,,5.669778616,0.06866791,-0.896766068,-2.053076129,0.103482613
4.335004224,1.542421088,0.060261867,-0.370413276,,5.671010102,1.076250624,-0.565310775,-0.968718956,0.046738417
4.33553727,0.263297904,0.023520534,-0.089140543,,5.671704803,1.847540301,-0.160455426,-0.153495054,-0.000755178
4.33553727,0.263297904,0.023520534,-0.089140543,,5.672063835,0.175329403,-0.870917629,-1.937238831,0.097293644
4.336128722,0.131684241,0.012574683,-0.045932089,,5.675230301,1.712848918,-0.244829589,-0.291628535,0.004465418
4.336128722,0.131684241,0.012574683,-0.045932089,,5.675453271,0.960051771,-0.612794841,-1.09309417,0.053438119
4.336956522,0,0,0,,5.67600585,0.737091017,-0.697399362,-1.332485849,0.066126395
4.33719258,1.661793099,0.057166841,-0.383779806,,5.676076335,0.376848842,-0.815417692,-1.71944514,0.085822912
4.33719258,1.661793099,0.057166841,-0.383779806,,5.676334504,0.62529955,-0.736497992,-1.452466245,0.072253264
4.339121042,2.133900584,0.029641989,-0.415661987,,5.67636211,0.484210396,-0.78269298,-1.60398809,0.079939658
4.339121042,2.133900584,0.029641989,-0.415661987,,5.677159105,1.167004255,-0.52574099,-0.870641919,0.040544914
4.339755463,1.783273686,0.05256737,-0.39508715,,5.680274115,0.014639204,-0.908176099,-2.1104321,0.10560667
4.339755463,1.783273686,0.05256737,-0.39508715,,5.682027843,1.137899615,-0.538181899,-0.901414988,0.042051179
4.339855155,1.895962947,0.04687767,-0.403784339,,5.688621459,0.568849438,-0.75474107,-1.511538212,0.074428309
4.339855155,1.895962947,0.04687767,-0.403784339,,5.688627344,0.538770863,-0.764584496,-1.543830081,0.07606318
4.340746854,2.293631264,0.013514815,-0.417980285,,5.690857712,1.768285807,-0.210183444,-0.234248105,0.001387789
4.340746854,2.293631264,0.013514815,-0.417980285,,5.69104457,1.858532787,-0.152954997,-0.142254653,-0.001251162
4.343100904,2.014385988,0.039197136,-0.410368171,,5.692601779,1.48560489,-0.371554474,-0.529286534,0.017952557
4.343100904,2.014385988,0.039197136,-0.410368171,,5.693208688,1.792737556,-0.194852365,-0.209190829,0.000413471
4.348160375,2.253929194,0.0177261,-0.41664887,,5.695493889,1.672798719,-0.267535681,-0.332736397,0.005889679
4.348160375,2.253929194,0.0177261,-0.41664887,,5.69624064,1.988188134,-0.067197361,-0.011813826,-0.000415608
4.355573896,2.214227124,0.021719196,-0.415086445,,5.696885572,0.189932837,-0.865819707,-1.918244209,0.094477469
4.355573896,2.214227124,0.021719196,-0.415086445,,5.700529719,1.239923536,-0.491396268,-0.790463636,0.034112148
4.362987417,2.174525054,0.025494162,-0.413297165,,5.70053484,1.944594246,-0.096414356,-0.055483546,-0.001451783
4.362987417,2.174525054,0.025494162,-0.413297165,,5.700865349,0.362199119,-0.818359926,-1.732043508,0.084742286
4.362987417,2.174525054,0.025494162,-0.413297165,,5.70188505,0.752527933,-0.690385639,-1.312837439,0.063374413
4.362987417,2.174525054,0.025494162,-0.413297165,,5.702243231,1.543052265,-0.340271534,-0.46820729,0.013564541
4.362987417,2.174525054,0.025494162,-0.413297165,,5.70277364,0.94598625,-0.616797196,-1.105236933,0.052262601
4.366967279,2.055010459,0.035816454,-0.409043071,,5.704197405,1.462539533,-0.382777612,-0.553107512,0.018842713
4.369304214,1.105759133,0.061013065,-0.300320817,,5.708771918,1.751183811,-0.21996678,-0.25156723,0.001619759
4.369320372,1.23128617,0.062219409,-0.322520568,,5.711089348,1.608336808,-0.303647386,-0.399446745,0.009003951
4.369320372,1.23128617,0.062219409,-0.322520568,,5.71131238,1.56370808,-0.328426977,-0.446152209,0.011769177
4.369661565,0.978647022,0.058629113,-0.275372865,,5.716167117,1.805786845,-0.185952624,-0.195675699,-0.000453723
4.370392426,0.849949838,0.055047487,-0.247584828,,5.717714934,1.262059142,-0.48005316,-0.765467286,0.03148028
4.370392426,0.849949838,0.055047487,-0.247584828,,5.720420081,0.085488918,-0.890086469,-2.028340624,0.098241487
4.370440483,1.356566191,0.062233832,-0.342202665,,5.722940255,1.403254512,-0.411669454,-0.614899079,0.021722682
4.370440483,1.356566191,0.062233832,-0.342202665,,5.724714905,1.888554388,-0.133209,-0.111814099,-0.001895016
4.370614721,0.720606196,0.050271813,-0.217124845,,5.725389941,1.689612499,-0.256097451,-0.314699808,0.003945354
4.370614721,0.720606196,0.050271813,-0.217124845,,5.728580569,0.643693951,-0.727355065,-1.426438294,0.067440171
4.371085463,1.480047327,0.061029614,-0.359294831,,5.728614937,0.468043357,-0.784926524,-1.614872176,0.076943986
4.371474432,0.590756943,0.044263553,-0.18393739,,5.728782824,1.316602531,-0.453637426,-0.706558984,0.027146626
4.372333621,0.460163067,0.03695817,-0.147941507,,5.728961812,1.069960459,-0.564394764,-0.969821574,0.042942043
4.372502131,1.6014739,0.058559591,-0.37376477,,5.73278553,1.759157302,-0.21418126,-0.24311739,0.000718111
4.373192286,0.328824567,0.028271221,-0.109080667,,5.737829753,1.789308587,-0.19555779,-0.212292638,-0.000380783
4.373192286,0.328824567,0.028271221,-0.109080667,,5.73873543,0.260609437,-0.844905772,-1.836770035,0.087324469
4.373758301,0.197526361,0.018158685,-0.067555353,,5.739416931,0.290108479,-0.836779271,-1.804898713,0.085689279
4.373758301,0.197526361,0.018158685,-0.067555353,,5.745241818,0.100092352,-0.885334197,-2.009463601,0.095367581
4.3745861,0.06584212,0.006468636,-0.023199031,,5.745563116,1.606229161,-0.302803257,-0.400646524,0.007677553
4.374690486,1.720845911,0.054766978,-0.385700282,,5.745618575,1.696329224,-0.251176041,-0.307413156,0.002994631
4.374690486,1.720845911,0.054766978,-0.385700282,,5.745712836,0.826048337,-0.660754991,-1.229189817,0.056112179
4.375,2.3125,0.010536177,-0.412621838,,5.745864999,0.859176324,-0.648170005,-1.19371208,0.054218029
4.376021774,1.837930834,0.049604649,-0.39534772,,5.748151649,1.519391556,-0.350047814,-0.491236882,0.012773177
4.376021774,1.837930834,0.049604649,-0.39534772,,5.748826394,0.206621831,-0.858702738,-1.893797787,0.089413116
4.379267523,1.956353876,0.042726944,-0.402677757,,5.7520231,0.344992579,-0.820590001,-1.744316634,0.081792127
4.382413521,2.27279793,0.014922024,-0.411534826,,5.7521843,1.858532787,-0.152156493,-0.142017212,-0.001946604
4.389827042,2.233095861,0.019082778,-0.410213322,,5.753403951,0.453393634,-0.788140274,-1.627670004,0.07590443
4.390833654,2.09563493,0.032146228,-0.407280757,,5.754053874,0.017378344,-0.903616156,-2.098219887,0.098946397
4.397240563,2.193393791,0.023018168,-0.408661621,,5.75445977,0.659130867,-0.720615509,-1.406962874,0.064745689
4.397240563,2.193393791,0.023018168,-0.408661621,,5.756282181,1.055894938,-0.568647704,-0.982381344,0.041923543
4.406489405,1.043138356,0.059654514,-0.286252273,,5.757081297,0.769912593,-0.680973267,-1.288068079,0.058461476
4.406489405,1.043138356,0.059654514,-0.286252273,,5.757795046,0.925305578,-0.621775425,-1.12177651,0.049580217
4.406505563,1.168665393,0.061416241,-0.309333898,,5.758917727,1.543912279,-0.336246603,-0.465192923,0.010770497
4.406521721,1.29419243,0.062024428,-0.330002981,,5.760302455,1.187111318,-0.511469199,-0.842118157,0.033512512
4.406521721,1.29419243,0.062024428,-0.330002981,,5.760469962,1.944594246,-0.097437197,-0.055459366,-0.001623439
4.406521721,1.29419243,0.062024428,-0.330002981,,5.761916932,1.492010442,-0.363655047,-0.519399111,0.01382007
4.406521721,1.29419243,0.062024428,-0.330002981,,5.765291112,0.572841026,-0.749270844,-1.498199182,0.06864349
4.406521721,1.29419243,0.062024428,-0.330002981,,5.765298099,0.537134451,-0.760976093,-1.536471319,0.070559187
4.406521721,1.29419243,0.062024428,-0.330002981,,5.765791751,1.612945886,-0.297934321,-0.393148067,0.006532739
4.407166701,1.417673565,0.06143353,-0.347936902,,5.766082183,1.152560913,-0.526455605,-0.878468412,0.035311797
4.407220266,0.914441171,0.056679215,-0.26003873,,5.769958493,1.408356931,-0.406039305,-0.606995179,0.018713856
4.407811681,1.541154701,0.059584931,-0.363537912,,5.770432514,1.8446518,-0.160642048,-0.155978414,-0.001980345
4.407811681,1.541154701,0.059584931,-0.363537912,,5.773768447,1.988188134,-0.069848817,-0.011814731,-0.000441528
4.407951126,0.785743987,0.052540154,-0.23128396,,5.777516025,1.296270098,-0.460121315,-0.724996138,0.025479242
4.407951126,0.785743987,0.052540154,-0.23128396,,5.780703193,1.213388716,-0.498337492,-0.812691893,0.0305605
4.407951126,0.785743987,0.052540154,-0.23128396,,5.782931339,1.55188577,-0.330523441,-0.456096056,0.009278528
4.407951126,0.785743987,0.052540154,-0.23128396,,5.783520004,0.034714225,-0.898313811,-2.075890251,0.09548416
4.407951126,0.785743987,0.052540154,-0.23128396,,5.786209594,0.137168036,-0.874275159,-1.964477952,0.090032943
4.407951126,0.785743987,0.052540154,-0.23128396,,5.790380062,1.70430477,-0.244601257,-0.298546903,0.00146062
4.408810838,0.655894734,0.047174708,-0.19968277,,5.792639592,0.415493147,-0.797638176,-1.66389799,0.075030008
4.409670549,0.526045481,0.040585984,-0.165476772,,5.793359953,1.752072745,-0.216406795,-0.249732448,-0.000291477
4.409670549,0.526045481,0.040585984,-0.165476772,,5.794287734,1.494980625,-0.36012882,-0.515055625,0.012129198
4.410000037,1.660526711,0.056475524,-0.376244326,,5.794725382,0.519743621,-0.765025655,-1.551855879,0.069372849
4.410529214,0.394706981,0.03262605,-0.128217684,,5.796012567,0.591166342,-0.741523748,-1.475219013,0.065476816
4.41138788,0.263368481,0.023289442,-0.088269664,,5.797227074,1.410858959,-0.403053644,-0.603052873,0.017132483
4.41138788,0.263368481,0.023289442,-0.088269664,,5.797609115,1.777471645,-0.201127811,-0.223869866,-0.001070254
4.41138788,0.263368481,0.023289442,-0.088269664,,5.79772571,0.697709279,-0.704746585,-1.361055183,0.059608418
4.41138788,0.263368481,0.023289442,-0.088269664,,5.798434496,1.931021958,-0.106724655,-0.069048271,-0.001951681
4.41138788,0.263368481,0.023289442,-0.088269664,,5.798514463,1.135863594,-0.531778028,-0.893744496,0.034277514
4.41138788,0.263368481,0.023289442,-0.088269664,,5.799161377,1.010273681,-0.585064727,-1.027310147,0.04181089
4.412188392,1.779898722,0.051942208,-0.38673454,,5.804536063,1.530335231,-0.340849533,-0.477856545,0.009634305
4.412188392,1.779898722,0.051942208,-0.38673454,,5.804784606,1.298772126,-0.457219014,-0.720726621,0.02375845
4.412188392,1.779898722,0.051942208,-0.38673454,,5.805975521,1.639842859,-0.280806455,-0.36448603,0.003845005
4.412188392,1.779898722,0.051942208,-0.38673454,,5.81031155,1.823443033,-0.173158998,-0.177239097,-0.002125046
4.412188392,1.779898722,0.051942208,-0.38673454,,5.812074826,0.017335881,-0.900712599,-2.091522318,0.093852711
4.412188392,1.779898722,0.051942208,-0.38673454,,5.813073995,1.216358898,-0.49495269,-0.80734488,0.028424136
4.412215679,0.131684241,0.012448253,-0.045502468,,5.81668271,1.91714097,-0.115648611,-0.082945985,-0.002206009
4.413043478,0,0,0,,5.824987235,0.536898322,-0.757880871,-1.530269237,0.066313965
4.414700029,2.136259401,0.028169194,-0.405075437,,5.825226223,0.099919238,-0.881281664,-2.00042061,0.08868313
4.414700029,2.136259401,0.028169194,-0.405075437,,5.826281406,0.572614469,-0.746091377,-1.49191121,0.064337827
4.415434142,1.898321764,0.045853833,-0.394799055,,5.827234904,0.206452127,-0.854679127,-1.885026323,0.08319812
4.416666667,2.291666667,0.011976554,-0.406235098,,5.829442032,1.602931908,-0.300220034,-0.402031996,0.004904257
4.418679891,2.016744805,0.03799217,-0.400592144,,5.83043161,0.344822875,-0.81653481,-1.735690667,0.075904762
4.418679891,2.016744805,0.03799217,-0.400592144,,5.831134318,1.985978017,-0.073293606,-0.014023523,-0.000539555
4.424080188,2.251964597,0.016312395,-0.40515875,,5.831858406,1.153040745,-0.522189152,-0.873137997,0.031201732
4.431493708,2.212262527,0.020415517,-0.40384861,,5.833388356,0.453220519,-0.783977671,-1.619037904,0.070091078
4.431493708,2.212262527,0.020415517,-0.40384861,,5.83752938,1.190594224,-0.505112522,-0.833029498,0.028590931
4.442546266,2.057369276,0.034494288,-0.398986938,,5.839748862,0.658996777,-0.716052282,-1.398217636,0.058814219
4.443247939,1.355299804,0.061487016,-0.336334764,,5.840159096,0.26038992,-0.839681968,-1.825488454,0.079467863
4.443247939,1.355299804,0.061487016,-0.336334764,,5.840689977,0.769781144,-0.676397329,-1.279895198,0.052757713
4.443690754,1.106044616,0.060302387,-0.295879043,,5.840840597,0.289888962,-0.831549821,-1.793659237,0.077924114
4.443706912,1.231571653,0.061475487,-0.317428508,,5.841403726,0.92517413,-0.617009402,-1.114318486,0.044031888
4.443706912,1.231571653,0.061475487,-0.317428508,,5.841571273,1.055760848,-0.563587597,-0.975561845,0.036441527
4.443892919,1.478780939,0.060276331,-0.352776241,,5.846066607,1.879482891,-0.138982436,-0.120707806,-0.002630407
4.444048105,0.978932505,0.057960131,-0.27156097,,5.847641463,1.584778121,-0.309258449,-0.420353443,0.005228533
4.444778966,0.850235321,0.054429917,-0.24438197,,5.849280291,0.085280034,-0.8835632,-2.013678629,0.087384073
4.444778966,0.850235321,0.054429917,-0.24438197,,5.850848607,1.414990742,-0.397747321,-0.596438963,0.014354499
4.445309587,1.600207512,0.057798889,-0.36658256,,5.852776272,1.694488092,-0.247940383,-0.30779135,0.000462888
4.446147243,0.721032525,0.049713538,-0.214498099,,5.852796954,1.96949976,-0.084170474,-0.0305028,-0.001094834
4.446147243,0.721032525,0.049713538,-0.214498099,,5.853863072,0.825878305,-0.654756751,-1.218922631,0.048805095
4.447006954,0.591183272,0.043781534,-0.181879652,,5.854015235,0.859006292,-0.64212288,-1.183646676,0.046956252
4.447497943,1.719579523,0.053990009,-0.377845736,,5.856691177,1.328338762,-0.439916002,-0.686876676,0.019218546
4.447497943,1.719579523,0.053990009,-0.377845736,,5.858880396,0.467671331,-0.778168994,-1.600943558,0.067519124
4.447866143,0.460589396,0.036565491,-0.146427149,,5.863438405,1.47715069,-0.365433857,-0.531273482,0.010300411
4.448724808,0.329250896,0.027982331,-0.108082931,,5.865246786,0.643369013,-0.720106055,-1.412458362,0.057916803
4.448724808,0.329250896,0.027982331,-0.108082931,,5.86965961,1.070230571,-0.555816073,-0.958195216,0.033917159
4.448953174,2.155128137,0.025786059,-0.400593518,,5.872071413,1.506932773,-0.349504045,-0.500149793,0.008383855
4.449845258,0.197526361,0.017952639,-0.066900154,,5.87270776,1.813626355,-0.178297825,-0.186888687,-0.002570419
4.449845258,0.197526361,0.017952639,-0.066900154,,5.874071248,1.739374589,-0.221579676,-0.261948575,-0.001239814
4.450673057,0.06584212,0.006395264,-0.022990192,,5.876955933,1.276670299,-0.463229081,-0.740089939,0.021301707
4.45160076,1.840289651,0.048571722,-0.386744964,,5.877875321,1.983521743,-0.076477317,-0.016480947,-0.000631767
4.45160076,1.840289651,0.048571722,-0.386744964,,5.878293643,0.189540206,-0.856532715,-1.897898202,0.07999612
4.45484651,1.958712693,0.041556577,-0.39328619,,5.87832041,1.764773489,-0.206801955,-0.236192932,-0.001872708
4.458333333,2.270833333,0.01340371,-0.399924316,,5.880332992,1.907126992,-0.122612644,-0.092937999,-0.00249206
4.465746854,2.231131264,0.0176823,-0.398860046,,5.88227342,0.361806487,-0.808975701,-1.712118817,0.071206096
4.465746854,2.231131264,0.0176823,-0.398860046,,5.885710946,0.014603434,-0.897877913,-2.086569393,0.087551033
4.466412641,2.097993747,0.030697875,-0.396945468,,5.889980152,1.67361709,-0.258440957,-0.328628225,0.000469821
4.466412641,2.097993747,0.030697875,-0.396945468,,5.891343338,1.554689145,-0.323344359,-0.450382565,0.005368486
4.479818761,1.295025692,0.061198235,-0.324760221,,5.895324379,0.752223811,-0.679870174,-1.293724549,0.050142591
4.479818761,1.295025692,0.061198235,-0.324760221,,5.896212969,0.945682128,-0.605728718,-1.088182087,0.039481771
4.479974158,1.416407178,0.06060321,-0.341778109,,5.897556709,1.254966601,-0.472123479,-0.761820153,0.021563516
4.479974158,1.416407178,0.06060321,-0.341778109,,5.899039674,0.068500126,-0.885144568,-2.026707456,0.083986776
4.480619138,1.539888313,0.058749674,-0.356714897,,5.901458557,1.918938857,-0.11586798,-0.081086764,-0.002344273
4.480619138,1.539888313,0.058749674,-0.356714897,,5.902270439,0.537782394,-0.753581581,-1.52175656,0.060894471
4.480875945,1.043423839,0.058889228,-0.282145853,,5.902347711,0.174901002,-0.859126037,-1.911279492,0.078788617
4.480875945,1.043423839,0.058889228,-0.282145853,,5.903360626,0.567869033,-0.743641108,-1.489519248,0.059277999
4.480892103,1.168950876,0.060609193,-0.304593272,,5.90776546,0.376257299,-0.803464395,-1.694137541,0.068627895
4.480892103,1.168950876,0.060609193,-0.304593272,,5.908179583,1.655463303,-0.267912172,-0.346899745,0.000758155
4.481606806,0.914726654,0.055965687,-0.256553399,,5.912214747,0.483277368,-0.770555293,-1.579101991,0.062972183
4.481606806,0.914726654,0.055965687,-0.256553399,,5.914794091,1.821939665,-0.173087651,-0.178377056,-0.002920941
4.482807493,1.659260324,0.055631885,-0.368756841,,5.915433234,0.257491051,-0.836766566,-1.820989637,0.073842199
4.482807493,1.659260324,0.055631885,-0.368756841,,5.91624225,0.292509656,-0.827088457,-1.783247151,0.07209727
4.482970238,0.786838762,0.05191258,-0.228550631,,5.917328471,0.624404346,-0.723893529,-1.427953263,0.055433013
4.482970238,0.786838762,0.05191258,-0.228550631,,5.920310333,1.140394134,-0.522539543,-0.880938715,0.027051118
4.48320632,2.173996873,0.023283193,-0.395942457,,5.920822303,0.736596048,-0.684197384,-1.308203137,0.049348477
4.483572276,1.777477999,0.051150707,-0.378633845,,5.921597977,1.393324377,-0.404534305,-0.616380017,0.012660628
4.483572276,1.777477999,0.051150707,-0.378633845,,5.924301306,0.960151851,-0.598330803,-1.070824767,0.03702316
4.48434336,0.656321063,0.046595718,-0.197356753,,5.925087459,1.172028508,-0.508259409,-0.847425617,0.024997111
4.48434336,0.656321063,0.046595718,-0.197356753,,5.930914949,1.078146609,-0.548914348,-0.945837452,0.030038185
4.485203071,0.52647181,0.040097713,-0.163702443,,5.933414986,1.727592649,-0.226877816,-0.273437138,-0.001717109
4.485203071,0.52647181,0.040097713,-0.163702443,,5.934160342,0.822907007,-0.651507519,-1.215471846,0.043928403
4.486061736,0.39513331,0.032243978,-0.126972075,,5.934340976,0.862233568,-0.636463405,-1.173761857,0.041801935
4.486061736,0.39513331,0.032243978,-0.126972075,,5.935919656,1.833751531,-0.166165373,-0.166454822,-0.003067301
4.487278389,0.263789511,0.023027725,-0.087516539,,5.938144089,1.609334378,-0.292016036,-0.393538183,0.00186103
4.487278389,0.263789511,0.023027725,-0.087516539,,5.938459209,1.757743933,-0.209730251,-0.242947983,-0.002361664
4.488302636,0.131684241,0.012290853,-0.045077591,,5.940050191,1.986119013,-0.077180534,-0.013879777,-0.000534517
4.488302636,0.131684241,0.012290853,-0.045077591,,5.940064983,0.137784218,-0.866702814,-1.947716574,0.077484586
4.489130435,0,0,0,,5.943988055,0.240112707,-0.840113673,-1.836998033,0.072485713
4.491013128,1.900680581,0.044691122,-0.385803773,,5.945160001,1.934888646,-0.107346296,-0.065105584,-0.002052842
4.491013128,1.900680581,0.044691122,-0.385803773,,5.946504102,0.309664358,-0.820823899,-1.761988671,0.06902308
4.494258878,2.019103622,0.036665227,-0.390798863,,5.950006765,0.412607096,-0.790530295,-1.651293777,0.06382368
4.494258878,2.019103622,0.036665227,-0.390798863,,5.953322947,1.226533527,-0.482039089,-0.788893873,0.020568024
4.5,2.25,0.014814155,-0.393697797,,5.954954753,1.449124623,-0.37494127,-0.557607154,0.008586406
4.5,2.25,0.014814155,-0.393697797,,5.955019711,1.706042109,-0.238438338,-0.295074215,-0.001466005
4.5,2.25,0.014814155,-0.393697797,,5.960292738,0.696476211,-0.696546809,-1.347658633,0.048952864
4.500665786,2.116862483,0.028409374,-0.392626179,,5.960914749,1.360731065,-0.418378575,-0.648852267,0.012926754
4.516544979,1.356133066,0.060564735,-0.330787945,,5.962092708,1.53302278,-0.331544298,-0.471170938,0.004453875
4.516700376,1.477514552,0.059363055,-0.346327886,,5.963537577,1.771765916,-0.201412767,-0.228686172,-0.002765044
4.516700376,1.477514552,0.059363055,-0.346327886,,5.963587761,1.478906706,-0.359409654,-0.5267045,0.006878401
4.517003952,1.232404915,0.060587557,-0.312549694,,5.96442918,0.804355134,-0.656895543,-1.23286309,0.043092038
4.517459466,2.19286561,0.020656998,-0.391124657,,5.967684919,0.879410719,-0.628012545,-1.153181031,0.038925968
4.517459466,2.19286561,0.020656998,-0.391124657,,5.971801154,1.86903211,-0.145918448,-0.131007121,-0.003064246
4.518077294,1.106330099,0.059438582,-0.29148661,,5.973157299,0.993047058,-0.582236817,-1.032883764,0.032499794
4.518077294,1.106330099,0.059438582,-0.29148661,,5.974014612,0.257198128,-0.834103473,-1.815893247,0.069417996
4.518117044,1.598941125,0.056881359,-0.359468964,,5.975721643,0.291731174,-0.824493047,-1.778630451,0.067701705
4.518117044,1.598941125,0.056881359,-0.359468964,,5.975777863,0.068500126,-0.88180955,-2.019356409,0.077566086
4.518125252,2.059728093,0.033058014,-0.388925538,,5.980350911,1.633361476,-0.277561848,-0.368525574,0.000250132
4.518125252,2.059728093,0.033058014,-0.388925538,,5.980628224,0.174901002,-0.855556118,-1.90392897,0.072608336
4.518434646,0.979217988,0.057147924,-0.267793143,,5.981515525,1.339027367,-0.427779718,-0.670651989,0.013311331
4.518434646,0.979217988,0.057147924,-0.267793143,,5.984974005,0.014603434,-0.893708727,-2.076967694,0.078979713
4.518881827,1.7171588,0.053129198,-0.370111145,,5.985261544,1.717067347,-0.231652438,-0.283721767,-0.002035514
4.519798078,0.851330095,0.053699204,-0.241364882,,5.988735187,1.75263987,-0.21181459,-0.247833859,-0.002683509
4.521166355,0.722127299,0.049065485,-0.212079015,,5.989707085,0.374277722,-0.800099519,-1.688891546,0.062843416
4.522539476,0.591609601,0.043193291,-0.179846576,,5.992541914,0.481336794,-0.767211123,-1.574182775,0.057561308
4.522539476,0.591609601,0.043193291,-0.179846576,,5.995651343,0.820411046,-0.649208313,-1.213639329,0.040421946
4.522984644,1.837868929,0.047702591,-0.378345828,,5.997655638,0.622463771,-0.720491349,-1.423415825,0.050336455
4.523398665,0.461015724,0.036084338,-0.144930744,,5.998726448,0.85614007,-0.63539449,-1.175665299,0.038388713
4.523398665,0.461015724,0.036084338,-0.144930744,,6.001687892,1.833751531,-0.166153036,-0.16630715,-0.003284023
4.524615317,0.329671925,0.027622968,-0.107089855,,6.002763929,0.734616471,-0.680671281,-1.303974389,0.044401648
4.525735767,0.197947391,0.017736998,-0.066389642,,6.005826086,1.642648939,-0.271763428,-0.358827189,-0.000410671
4.526760013,0.06584212,0.006305864,-0.022784029,,6.005922055,0.189293453,-0.850741588,-1.886203363,0.070008014
4.526760013,0.06584212,0.006305864,-0.022784029,,6.006175945,0.535272205,-0.749228185,-1.515560948,0.054053663
4.530425496,1.96107151,0.0402592,-0.383903579,,6.007266132,0.565358844,-0.739273557,-1.483431087,0.052525114
4.530425496,1.96107151,0.0402592,-0.383903579,,6.009632436,1.934888646,-0.108848174,-0.065091063,-0.002050839
4.534918932,2.135731219,0.026008811,-0.388146508,,6.011329138,1.534650227,-0.328643229,-0.468615721,0.003261263
4.534918932,2.135731219,0.026008811,-0.388146508,,6.014319415,0.359171131,-0.803407553,-1.703023831,0.061796267
4.541666667,2.229166667,0.016204039,-0.38756418,,6.018043387,0.943505488,-0.599983253,-1.082325824,0.032770725
4.552378398,2.078596829,0.030864542,-0.384778426,,6.018229747,1.291519143,-0.448431537,-0.718622255,0.014427644
4.552378398,2.078596829,0.030864542,-0.384778426,,6.021776031,1.425314358,-0.383645978,-0.580411207,0.00774502
4.553115801,1.295858954,0.060212932,-0.319578585,,6.022810074,1.061828222,-0.550836725,-0.957820032,0.026303439
4.553115801,1.295858954,0.060212932,-0.319578585,,6.022913905,1.817640094,-0.17521592,-0.182418593,-0.003339264
4.553271198,1.41724044,0.059585056,-0.335929358,,6.023447143,1.986119013,-0.080203905,-0.013879915,-0.000517525
4.553426594,1.538621926,0.057754948,-0.349979377,,6.026823862,0.085280034,-0.875769737,-1.996709517,0.072675929
4.553426594,1.538621926,0.057754948,-0.349979377,,6.029064917,0.748141681,-0.674418147,-1.287806194,0.042166859
4.553426594,1.538621926,0.057754948,-0.349979377,,6.032024361,1.460668963,-0.36553485,-0.543896894,0.005884335
4.553426594,1.538621926,0.057754948,-0.349979377,,6.036804314,1.543937689,-0.322859584,-0.458741789,0.002402129
4.553426594,1.538621926,0.057754948,-0.349979377,,6.039179324,1.119285831,-0.525269483,-0.8969412,0.022536031
4.553426594,1.538621926,0.057754948,-0.349979377,,6.04395645,1.150920205,-0.511144643,-0.86373479,0.020686168
4.554189143,1.169784138,0.059665569,-0.300075049,,6.044192212,0.923902712,-0.606473389,-1.101412509,0.032425941
4.554191377,1.656839601,0.0546926,-0.361396091,,6.044727527,0.463181565,-0.770463913,-1.589446293,0.054910832
4.55495616,1.775057277,0.050223174,-0.37062508,,6.045218072,1.21021514,-0.484550826,-0.80199221,0.017582244
4.55495616,1.775057277,0.050223174,-0.37062508,,6.046231416,1.399549683,-0.395219266,-0.606284732,0.008254116
4.555262485,1.043709322,0.057976293,-0.278096569,,6.050056715,0.258948953,-0.83025123,-1.80763194,0.063661247
4.555262485,1.043709322,0.057976293,-0.278096569,,6.050623744,1.918938857,-0.118748336,-0.08102437,-0.002381638
4.555262485,1.043709322,0.057976293,-0.278096569,,6.051093917,0.638879248,-0.712230355,-1.402060262,0.046214905
4.555262485,1.043709322,0.057976293,-0.278096569,,6.051494687,0.288038968,-0.822127738,-1.77629048,0.062299199
4.555262485,1.043709322,0.057976293,-0.278096569,,6.052117693,0.099672485,-0.871314514,-1.979049715,0.070055631
4.555262485,1.043709322,0.057976293,-0.278096569,,6.05694759,1.709699525,-0.234349422,-0.290718111,-0.002477065
4.556625918,0.915821429,0.055129153,-0.253253129,,6.05764014,1.652898948,-0.26488026,-0.347988323,-0.001295545
4.55798935,0.787933536,0.051157767,-0.225852425,,6.058710403,0.205294689,-0.844318887,-1.864625745,0.065276677
4.55798935,0.787933536,0.051157767,-0.225852425,,6.058819639,0.017335881,-0.890313179,-2.067628853,0.072596985
4.559126133,2.172032276,0.021940191,-0.385029852,,6.059873725,1.739665177,-0.218019695,-0.260564249,-0.002934381
4.559362472,0.657415837,0.045938325,-0.195243878,,6.062266194,1.471694202,-0.358710292,-0.532009201,0.004717957
4.560735593,0.526898139,0.039512585,-0.161953525,,6.065455478,0.34174682,-0.806198976,-1.717650031,0.058955739
4.560735593,0.526898139,0.039512585,-0.161953525,,6.069339857,0.448074974,-0.774051565,-1.603727809,0.053957486
4.560735593,0.526898139,0.039512585,-0.161953525,,6.071365718,1.793458417,-0.188507213,-0.206540991,-0.003405284
4.560735593,0.526898139,0.039512585,-0.161953525,,6.071849757,1.90282742,-0.128120999,-0.097113375,-0.002672055
4.560735593,0.526898139,0.039512585,-0.161953525,,6.074412828,0.815579552,-0.647056676,-1.213677785,0.036271391
4.560735593,0.526898139,0.039512585,-0.161953525,,6.075257606,1.322381005,-0.431064946,-0.684926682,0.011008219
4.561952246,0.39555434,0.03178109,-0.125736132,,6.07700324,0.845677039,-0.635445743,-1.18182059,0.034649225
4.562397012,1.898259858,0.043746569,-0.377112191,,6.077394905,0.652404458,-0.706275013,-1.385932248,0.043984355
4.563168898,0.264210541,0.022709146,-0.086773726,,6.081588759,1.576587351,-0.304385673,-0.424978427,0.000562765
4.563168898,0.264210541,0.022709146,-0.086773726,,6.082270683,1.032475905,-0.560149319,-0.985592815,0.025068355
4.564193145,0.13210527,0.012139675,-0.044798379,,6.083117955,1.411450446,-0.387749396,-0.593227359,0.006768139
4.565217391,0,0,0,,6.083272089,0.530658578,-0.747106507,-1.514770732,0.049293936
4.565217391,0,0,0,,6.083662415,0.759918729,-0.667406759,-1.271827828,0.038477974
4.565217391,0,0,0,,6.08456626,0.566374725,-0.735270653,-1.476718522,0.047571741
4.569837864,2.021462439,0.03522563,-0.381036142,,6.085180693,1.983521743,-0.083813861,-0.016476282,-0.000594445
4.569837864,2.021462439,0.03522563,-0.381036142,,6.088846195,0.034421303,-0.885354403,-2.046706813,0.06947593
4.569837864,2.021462439,0.03522563,-0.381036142,,6.088904404,1.448240359,-0.369345609,-0.55547483,0.005096568
4.569837864,2.021462439,0.03522563,-0.381036142,,6.094423283,0.136010597,-0.860719027,-1.936488416,0.065287022
4.569837864,2.021462439,0.03522563,-0.381036142,,6.095813227,0.90109659,-0.612930843,-1.122513523,0.030957985
4.569837864,2.021462439,0.03522563,-0.381036142,,6.106330163,1.332405993,-0.42487553,-0.67377686,0.009644894
4.569837864,2.021462439,0.03522563,-0.381036142,,6.107990628,0.410476517,-0.783905589,-1.641085699,0.053032224
4.569837864,2.021462439,0.03522563,-0.381036142,,6.108419508,1.012873129,-0.567034873,-1.004856644,0.024875359
4.576585599,2.114897886,0.027165102,-0.382094366,,6.109197,1.859314953,-0.152557618,-0.140578484,-0.003224601
4.583333333,2.208333333,0.017569413,-0.381532789,,6.110167781,1.217211935,-0.478173698,-0.79241534,0.014872588
4.589500928,1.596520402,0.055858921,-0.352487033,,6.110378303,1.964395696,-0.095112223,-0.035588318,-0.001189777
4.589500928,1.596520402,0.055858921,-0.352487033,,6.112355769,1.533142928,-0.325745353,-0.468664401,0.001527841
4.589842019,1.356966328,0.05948172,-0.325319547,,6.112489629,0.512725395,-0.751614671,-1.531855416,0.048250059
4.589997416,1.478347814,0.058250179,-0.340180517,,6.115788423,0.582430636,-0.728469755,-1.457609174,0.044917574
4.589997416,1.478347814,0.058250179,-0.340180517,,6.116983079,0.017085421,-0.888357447,-2.063321478,0.067726502
4.590265711,1.714738077,0.052124796,-0.362491621,,6.121025316,0.685906289,-0.692436567,-1.347726925,0.039878342
4.590300992,1.233238177,0.059544303,-0.307743115,,6.127338997,1.100570425,-0.528969743,-0.91270192,0.019829243
4.591374334,1.107163361,0.058446629,-0.287323618,,6.13170304,1.642316871,-0.268772806,-0.358109511,-0.001696508
4.591374334,1.107163361,0.058446629,-0.287323618,,6.132683009,0.098651385,-0.868559482,-1.97395531,0.063644995
4.593453757,0.980312762,0.056203527,-0.264211411,,6.13300997,1.138123904,-0.512358097,-0.873514318,0.017822545
4.593453757,0.980312762,0.056203527,-0.264211411,,6.134795317,1.513385833,-0.335015413,-0.488424475,0.001854417
4.594045065,2.057763496,0.031875806,-0.378774264,,6.13719742,1.980873954,-0.086996765,-0.019123167,-0.000659591
4.594045065,2.057763496,0.031875806,-0.378774264,,6.137688379,0.204293707,-0.841434734,-1.859813594,0.059359954
4.594368528,1.835448206,0.046706321,-0.370059139,,6.141240338,1.227236923,-0.472173633,-0.781083739,0.013387682
4.59481719,0.85242487,0.052835953,-0.23839464,,6.142980682,0.529019041,-0.744974262,-1.512569957,0.045622191
4.596185467,0.723222074,0.048298311,-0.209697362,,6.144433454,0.340745838,-0.803152185,-1.713080844,0.053477953
4.597558588,0.592704375,0.04253854,-0.178030848,,6.144985305,0.563008136,-0.733670465,-1.476374662,0.044012489
4.597558588,0.592704375,0.04253854,-0.178030848,,6.145428618,1.782876339,-0.194040238,-0.216962197,-0.00348203
4.599289174,0.461436754,0.035513081,-0.1434503,,6.145466003,0.969877754,-0.582943029,-1.048072705,0.025308047
4.599289174,0.461436754,0.035513081,-0.1434503,,6.147401212,1.892032659,-0.135276756,-0.107865813,-0.002775732
4.600505827,0.330092955,0.027196145,-0.106113063,,6.149905172,0.447053874,-0.770847934,-1.599292408,0.048699572
4.600792799,2.151198943,0.023185435,-0.379041543,,6.152217001,0.257654154,-0.826428092,-1.801525448,0.056235776
4.601626276,0.19836842,0.017477178,-0.065887226,,6.152750085,1.696011303,-0.240177682,-0.30399983,-0.002766507
4.60180938,1.958650787,0.039241423,-0.374927159,,6.153654973,0.28674417,-0.818262279,-1.770252464,0.054995484
4.60180938,1.958650787,0.039241423,-0.374927159,,6.155676219,1.725976956,-0.224303732,-0.273925064,-0.003139358
4.602650523,0.06626315,0.006239415,-0.022723925,,6.156385013,0.084047951,-0.871295377,-1.988034383,0.062265654
4.602650523,0.06626315,0.006239415,-0.022723925,,6.158380525,1.077299776,-0.537493676,-0.935681112,0.019728486
4.618252266,2.094064553,0.02826915,-0.376153683,,6.160856656,0.644342349,-0.705259131,-1.38931605,0.039493983
4.618252266,2.094064553,0.02826915,-0.376153683,,6.162970696,1.397570536,-0.391251107,-0.605817651,0.005563133
4.625,2.1875,0.018905534,-0.375613661,,6.163981356,1.338543215,-0.41948239,-0.666119473,0.007904771
4.625575261,1.654418878,0.053604408,-0.354172021,,6.165479759,0.752015463,-0.666493065,-1.275493552,0.034429007
4.625575261,1.654418878,0.053604408,-0.354172021,,6.167845096,1.428561696,-0.375989903,-0.57415208,0.004301268
4.625611595,1.540514344,0.056547119,-0.34374254,,6.169896509,1.150024666,-0.505416951,-0.859921605,0.015967464
4.625611595,1.540514344,0.056547119,-0.34374254,,6.169993153,1.905913646,-0.128182854,-0.093991947,-0.002509015
4.626340044,1.772636554,0.049158379,-0.362752276,,6.175590287,0.460779349,-0.765475225,-1.583077275,0.046474443
4.626340044,1.772636554,0.049158379,-0.362752276,,6.177180035,1.618165955,-0.280341457,-0.382116942,-0.001494353
4.626412841,1.296692216,0.059070268,-0.314487148,,6.177630571,0.893193324,-0.612172028,-1.12675796,0.027420986
4.626412841,1.296692216,0.059070268,-0.314487148,,6.180245918,0.805356451,-0.64593843,-1.218671916,0.031271806
4.626568238,1.418073702,0.058405419,-0.33017866,,6.18283633,0.835453937,-0.63436828,-1.18697468,0.029791151
4.626568238,1.418073702,0.058405419,-0.33017866,,6.185451583,0.627981184,-0.709860827,-1.405222461,0.03880922
4.627486183,1.1706174,0.058571655,-0.295637673,,6.186845637,1.48391302,-0.34805791,-0.517642187,0.002080107
4.627486183,1.1706174,0.058571655,-0.295637673,,6.188647657,0.186977555,-0.844132789,-1.874983917,0.056190547
4.629354406,1.045813089,0.056954047,-0.274466245,,6.190530866,0.014392451,-0.886661424,-2.060978724,0.061721229
4.629354406,1.045813089,0.056954047,-0.274466245,,6.19096968,1.257239212,-0.456275849,-0.748844867,0.01061955
4.631645029,0.916916203,0.054155511,-0.250013203,,6.191034655,1.09049707,-0.530350635,-0.920820402,0.017914566
4.631645029,0.916916203,0.054155511,-0.250013203,,6.191881259,1.004811019,-0.566446036,-1.009728924,0.021738671
4.631945099,1.999851368,0.035768364,-0.372477585,,6.194267854,1.793157111,-0.188517858,-0.206586516,-0.003494451
4.631945099,1.999851368,0.035768364,-0.372477585,,6.196879666,1.125668482,-0.514877767,-0.884232052,0.016145704
4.633008462,0.78902831,0.050278332,-0.22320344,,6.197045017,0.356855233,-0.79632495,-1.692506365,0.049243499
4.633008462,0.78902831,0.050278332,-0.22320344,,6.199619584,1.59840886,-0.289992747,-0.401846581,-0.00121176
4.633780896,1.895839135,0.042687062,-0.368555384,,6.203780469,1.983888563,-0.087519354,-0.016107037,-0.000529813
4.633780896,1.895839135,0.042687062,-0.368555384,,6.205601942,0.067510471,-0.87368957,-2.002564177,0.0588833
4.634381583,0.658510612,0.045170492,-0.193169191,,6.21234966,0.172374121,-0.847133551,-1.889166446,0.054927383
4.634381583,0.658510612,0.045170492,-0.193169191,,6.215168703,1.924426307,-0.119222433,-0.075497473,-0.002072804
4.635711732,2.036930163,0.032820053,-0.372887933,,6.216859795,1.807038098,-0.181235833,-0.192685919,-0.003449286
4.635711732,2.036930163,0.032820053,-0.372887933,,6.218359758,0.72985647,-0.672284552,-1.296121499,0.032654821
4.636419637,0.528135538,0.038874221,-0.160446292,,6.219333848,0.528227962,-0.742020456,-1.508928194,0.041005947
4.636419637,0.528135538,0.038874221,-0.160446292,,6.219388509,1.015928182,-0.560610792,-0.997148397,0.020169245
4.637842755,0.395975369,0.031241341,-0.124523696,,6.221022506,0.556859764,-0.732494465,-1.478507216,0.039740735
4.637842755,0.395975369,0.031241341,-0.124523696,,6.222730131,0.370580707,-0.791258612,-1.676335,0.046996592
4.639059408,0.26463157,0.022334977,-0.086044777,,6.223404202,1.68304162,-0.246009676,-0.316703803,-0.002811614
4.639059408,0.26463157,0.022334977,-0.086044777,,6.225411621,1.209463374,-0.476549821,-0.797048952,0.011681182
4.640083654,0.1325263,0.01195776,-0.04452427,,6.226877845,1.718614143,-0.227515267,-0.281064547,-0.003192507
4.640083654,0.1325263,0.01195776,-0.04452427,,6.227961257,0.253979562,-0.824626249,-1.800645226,0.05093652
4.641304348,0,0,0,,6.228471436,0.474858408,-0.758884146,-1.565044642,0.042583456
4.642459466,2.13036561,0.02438672,-0.373170151,,6.229668288,0.288512607,-0.814888314,-1.763578776,0.049576446
4.642459466,2.13036561,0.02438672,-0.373170151,,6.233487053,0.905617501,-0.604790224,-1.111390581,0.02439008
4.659918932,2.073231219,0.029313108,-0.370335762,,6.2363924,0.609161202,-0.714200303,-1.4224032,0.036726235
4.661649594,1.712317355,0.050976025,-0.355032021,,6.236959918,1.54964254,-0.313804125,-0.450682991,-0.000335852
4.661649594,1.712317355,0.050976025,-0.355032021,,6.242954685,0.713495305,-0.677188839,-1.312150582,0.03208114
4.661685928,1.59841282,0.054559461,-0.345971013,,6.246494251,1.321119849,-0.424459792,-0.682261274,0.006783117
4.662182416,1.480240232,0.056980144,-0.334358842,,6.248141746,1.188946162,-0.484806599,-0.817553862,0.011894374
4.663139059,1.357799591,0.058240288,-0.319961844,,6.248867038,0.135793581,-0.85538142,-1.926275731,0.0533772
4.663139059,1.357799591,0.058240288,-0.319961844,,6.250042412,1.659587777,-0.257735736,-0.340095806,-0.002559714
4.663598032,1.234071439,0.058348615,-0.30303589,,6.251400321,1.847987694,-0.159946052,-0.151772889,-0.003139268
4.663598032,1.234071439,0.058348615,-0.30303589,,6.253696962,1.7350924,-0.218767049,-0.264501271,-0.003315007
4.663916615,1.937039716,0.03957686,-0.366600348,,6.256098141,0.23664368,-0.828427696,-1.817573909,0.049533441
4.665466255,1.109267128,0.057313132,-0.283413834,,6.258727724,0.794998799,-0.646456472,-1.225936377,0.027927587
4.665752412,1.833027483,0.045581841,-0.361933682,,6.260159341,0.304806253,-0.809148415,-1.74441528,0.046888074
4.665752412,1.833027483,0.045581841,-0.361933682,,6.260994304,0.916734664,-0.599207983,-1.098741471,0.022763437
4.666666667,2.166666667,0.020206996,-0.369817505,,6.261802828,0.830727823,-0.632763573,-1.188431758,0.026306943
4.666666667,2.166666667,0.020206996,-0.369817505,,6.264914261,0.405127729,-0.779238211,-1.637190456,0.042951711
4.667545678,0.98241653,0.055154061,-0.260938938,,6.269054275,1.077794298,-0.532445475,-0.931472393,0.015794864
4.669836301,0.853519644,0.05184352,-0.235487059,,6.269358533,1.466489654,-0.354117045,-0.534302972,0.001597382
4.669836301,0.853519644,0.05184352,-0.235487059,,6.269703503,1.37503291,-0.398205156,-0.626988528,0.004459013
4.671204578,0.724316848,0.047415097,-0.207365562,,6.273978007,1.107422062,-0.519534033,-0.900768858,0.014438714
4.671204578,0.724316848,0.047415097,-0.207365562,,6.274493882,1.022024875,-0.555738849,-0.988965387,0.017891093
4.673242632,0.593941774,0.041781675,-0.176270156,,6.274577904,1.406024071,-0.383243064,-0.59546124,0.003370028
4.674973218,0.462674153,0.034905261,-0.14222629,,6.280846843,0.675270376,-0.689353127,-1.350610163,0.031677289
4.676396336,0.330513985,0.026703748,-0.105157113,,6.282340131,0.067510471,-0.871428533,-1.997867873,0.05282462
4.676396336,0.330513985,0.026703748,-0.105157113,,6.283790867,1.580635311,-0.297210752,-0.41915203,-0.001321069
4.677516785,0.19878945,0.017174307,-0.065395422,,6.284521942,1.924426307,-0.120649832,-0.075488115,-0.001946038
4.677516785,0.19878945,0.017174307,-0.065395422,,6.286324194,1.672387645,-0.250730366,-0.327132942,-0.002784815
4.678737479,0.06626315,0.006118454,-0.02252407,,6.2865051,1.712319746,-0.230297029,-0.287186765,-0.003159429
4.684126133,2.109532276,0.025536855,-0.367426877,,6.287525765,0.253659603,-0.822673476,-1.797610684,0.046738039
4.694052333,1.978240297,0.036195355,-0.364189412,,6.287606932,1.807038098,-0.181481066,-0.192596576,-0.003327338
4.694052333,1.978240297,0.036195355,-0.364189412,,6.287924606,0.775576298,-0.652548743,-1.245055832,0.027346887
4.69588813,1.874228064,0.042798836,-0.3604755,,6.289793924,0.014392451,-0.883930361,-2.054774939,0.053648242
4.697723928,1.770215831,0.0479556,-0.355065197,,6.289879935,0.28728913,-0.813131187,-1.761521038,0.045454135
4.697723928,1.770215831,0.0479556,-0.355065197,,6.290630174,0.172374121,-0.844589544,-1.884573625,0.049112063
4.697723928,1.770215831,0.0479556,-0.355065197,,6.293490882,1.983888563,-0.090220576,-0.016107058,-0.000480338
4.697723928,1.770215831,0.0479556,-0.355065197,,6.294456958,0.843925117,-0.626366014,-1.173368849,0.024324232
4.697723928,1.770215831,0.0479556,-0.355065197,,6.297234254,1.292094817,-0.436116621,-0.710941302,0.006829879
4.697723928,1.770215831,0.0479556,-0.355065197,,6.297589561,1.160999415,-0.495244871,-0.84504676,0.011655651
4.697760261,1.656311296,0.052217446,-0.347384568,,6.303648965,0.366897158,-0.789420327,-1.67588461,0.041819435
4.697796595,1.542406761,0.055183846,-0.337633967,,6.306658449,0.945340446,-0.585888654,-1.067411159,0.01980033
4.697796595,1.542406761,0.055183846,-0.337633967,,6.307795964,0.471247434,-0.757040695,-1.564802756,0.037878524
4.697818966,2.015319092,0.033358183,-0.364545686,,6.314353986,1.591417689,-0.291225465,-0.408144812,-0.001648333
4.698753238,1.41996612,0.057077454,-0.324768505,,6.315243917,1.787854824,-0.191444025,-0.211705394,-0.00331976
4.699709881,1.297525479,0.057773909,-0.309516102,,6.315716928,0.605550228,-0.712344439,-1.422472549,0.032508527
4.699709881,1.297525479,0.057773909,-0.309516102,,6.317104238,0.186708027,-0.839982249,-1.867775645,0.046739928
4.699709881,1.297525479,0.057773909,-0.309516102,,6.317780595,0.78975929,-0.646067188,-1.229051143,0.0254179
4.699709881,1.297525479,0.057773909,-0.309516102,,6.319964379,1.271577606,-0.444758906,-0.731456862,0.007103651
4.699709881,1.297525479,0.057773909,-0.309516102,,6.321237843,0.822379084,-0.633579638,-1.194859878,0.024008251
4.699709881,1.297525479,0.057773909,-0.309516102,,6.32194241,0.523557064,-0.739621752,-1.508757016,0.035163409
4.701578104,1.172721168,0.057327061,-0.291453864,,6.323631068,0.552188866,-0.730092853,-1.478422597,0.034033177
4.701585599,2.052397886,0.03028786,-0.364652799,,6.323873519,0.709811756,-0.675313854,-1.312515477,0.028181079
4.701585599,2.052397886,0.03028786,-0.364652799,,6.325699408,1.473074657,-0.349376197,-0.527090369,0.000874111
4.703446326,1.047916857,0.05578996,-0.270916871,,6.328685057,0.352141049,-0.792974181,-1.690369789,0.040690986
4.703446326,1.047916857,0.05578996,-0.270916871,,6.330450702,1.905913646,-0.131020523,-0.093953497,-0.002183742
4.70573695,0.919019971,0.053089001,-0.247088621,,6.333928584,0.084047951,-0.86596057,-1.977226572,0.048379085
4.708027573,0.790123085,0.049278162,-0.220617713,,6.343471098,0.900375106,-0.602428393,-1.112907229,0.020127376
4.708027573,0.790123085,0.049278162,-0.220617713,,6.348430823,1.355427164,-0.404958079,-0.645785104,0.003917328
4.708027573,0.790123085,0.049278162,-0.220617713,,6.349023667,0.721759253,-0.670044901,-1.299021157,0.026527766
4.708027573,0.790123085,0.049278162,-0.220617713,,6.353114133,1.224880052,-0.464807356,-0.778501539,0.008035505
4.708027573,0.790123085,0.049278162,-0.220617713,,6.354217272,1.392217078,-0.38743664,-0.608462655,0.002770246
4.708027573,0.790123085,0.049278162,-0.220617713,,6.355345674,1.005987642,-0.559259631,-1.003181254,0.015776342
4.708333333,2.145833333,0.021467838,-0.364156184,,6.356262527,1.483857035,-0.34339576,-0.515965262,0.000378554
4.710065627,0.659748011,0.044293078,-0.191157184,,6.358087687,1.886730372,-0.141232791,-0.113078693,-0.002406296
4.712103682,0.529372937,0.038142212,-0.158974433,,6.359117683,0.452424901,-0.761230127,-1.582419714,0.035447941
4.712103682,0.529372937,0.038142212,-0.158974433,,6.360196584,1.980873954,-0.093579672,-0.01912207,-0.000524163
4.713526799,0.397212768,0.030679168,-0.123571236,,6.360402649,0.098381858,-0.861687586,-1.960458848,0.045989909
4.714949917,0.2650526,0.021907007,-0.085333176,,6.363727891,0.017085421,-0.881526717,-2.047879581,0.047688534
4.714949917,0.2650526,0.021907007,-0.085333176,,6.366030833,0.882225116,-0.608741083,-1.131051628,0.019925542
4.714949917,0.2650526,0.021907007,-0.085333176,,6.366950905,0.256080187,-0.819512109,-1.791052294,0.041146766
4.714949917,0.2650526,0.021907007,-0.085333176,,6.368934015,0.284409096,-0.811433367,-1.760702919,0.0401668
4.714949917,0.2650526,0.021907007,-0.085333176,,6.368978979,0.619626737,-0.705578856,-1.405460925,0.029186117
4.714949917,0.2650526,0.021907007,-0.085333176,,6.373048564,0.203029437,-0.833967937,-1.847525965,0.042248686
4.716170611,0.1325263,0.011710547,-0.044120349,,6.373638397,1.057049675,-0.537262891,-0.950080047,0.013370744
4.717391304,0,0,0,,6.375413979,1.33107098,-0.415528391,-0.670125979,0.00427033
4.725792799,2.088698943,0.02662701,-0.361824692,,6.378099782,1.661374979,-0.255331529,-0.33784192,-0.002677218
4.726023849,1.915428645,0.039771075,-0.358569602,,6.378252174,1.695013062,-0.238449934,-0.304244291,-0.002948248
4.727859646,1.811416412,0.045466592,-0.354109615,,6.378441353,1.144962182,-0.499352364,-0.859722284,0.010187773
4.727859646,1.811416412,0.045466592,-0.354109615,,6.378562129,1.086677439,-0.524511914,-0.919501629,0.012191739
4.733834595,1.714209772,0.049506937,-0.347982775,,6.380321917,1.600219292,-0.285783004,-0.399000454,-0.001936833
4.733834595,1.714209772,0.049506937,-0.347982775,,6.381036742,1.758004977,-0.206685673,-0.241389415,-0.003171165
4.733870928,1.600305238,0.053107543,-0.339610203,,6.382350713,0.335911454,-0.796071935,-1.705194956,0.037719762
4.734367417,1.48213265,0.055556753,-0.32868035,,6.384153775,0.437668793,-0.765053394,-1.596998143,0.034427003
4.73532406,1.359692008,0.056860796,-0.314956477,,6.389824621,0.783265395,-0.645859256,-1.233306682,0.022481194
4.73532406,1.359692008,0.056860796,-0.314956477,,6.390499053,1.405016945,-0.380385233,-0.595140021,0.002043816
4.737689952,1.236175207,0.056993915,-0.298585109,,6.392736945,0.810743722,-0.635386708,-1.204572709,0.021399841
4.737689952,1.236175207,0.056993915,-0.298585109,,6.393004723,1.958101299,-0.105809592,-0.041864496,-0.001033813
4.739558175,1.111370896,0.056035816,-0.279604044,,6.394129127,0.631574234,-0.700571216,-1.391958112,0.027488663
4.741637598,0.984520297,0.05397045,-0.257749825,,6.395155516,0.034101344,-0.876744878,-2.027995184,0.044847446
4.743928222,0.855623411,0.050770698,-0.232899307,,6.398041638,0.517408277,-0.739037013,-1.512067364,0.031052849
4.743928222,0.855623411,0.050770698,-0.232899307,,6.398818291,0.731312333,-0.664796222,-1.287264552,0.023877021
4.746888622,0.725554247,0.0464158,-0.205105764,,6.40004626,0.551397372,-0.727723698,-1.47612433,0.02983796
4.746888622,0.725554247,0.0464158,-0.205105764,,6.402441172,1.255218048,-0.449530775,-0.746781646,0.006130931
4.748926677,0.595179173,0.040925167,-0.174556174,,6.406449425,0.978824001,-0.56861911,-1.029902243,0.015083561
4.75,2.125,0.022680735,-0.358643406,,6.406521657,0.134746327,-0.851213797,-1.919215241,0.041635716
4.750657263,0.463911552,0.034213939,-0.141034676,,6.409978845,1.34071196,-0.410065281,-0.659938971,0.003543821
4.75208038,0.331751384,0.026203428,-0.104463941,,6.412479086,0.860204541,-0.615705049,-1.152544676,0.018909955
4.75208038,0.331751384,0.026203428,-0.104463941,,6.412720531,1.517066405,-0.326063782,-0.482189018,-0.000615733
4.753603742,0.19878945,0.016796932,-0.06478494,,6.414158363,1.83444359,-0.168263838,-0.165176952,-0.002784385
4.753603742,0.19878945,0.016796932,-0.06478494,,6.41927747,1.377868013,-0.392456811,-0.622269853,0.002457624
4.754824436,0.06626315,0.005982882,-0.022329128,,6.419959115,1.977227345,-0.096885247,-0.02276391,-0.000565665
4.756159568,1.956629226,0.036486776,-0.356216616,,6.422731972,0.017015922,-0.880287458,-2.045140274,0.043056518
4.756159568,1.956629226,0.036486776,-0.356216616,,6.425232416,0.402031159,-0.774856147,-1.633146576,0.033034694
4.757995365,1.852616993,0.042754003,-0.352715595,,6.427762231,0.499891154,-0.7438188,-1.529447662,0.029935776
4.757995365,1.852616993,0.042754003,-0.352715595,,6.42900916,0.960674012,-0.575255524,-1.048087152,0.014963658
4.7599262,1.993708021,0.033775956,-0.356517659,,6.42990225,0.565580364,-0.722011595,-1.460090735,0.027781043
4.763692833,2.030786815,0.030836057,-0.356572469,,6.431557992,1.263339437,-0.444987518,-0.738116054,0.005414994
4.767459466,2.06786561,0.027646273,-0.356378389,,6.433688377,0.661592185,-0.688735025,-1.359095944,0.0245513
4.767459466,2.06786561,0.027646273,-0.356378389,,6.435202662,1.151841982,-0.494509636,-0.851629501,0.008670024
4.769945262,1.658203714,0.050682546,-0.340783042,,6.444395169,0.098098518,-0.859758961,-1.956935055,0.039692498
4.769945262,1.658203714,0.050682546,-0.340783042,,6.451006391,1.038930776,-0.542299601,-0.967005702,0.011793853
4.769981595,1.544299179,0.053669611,-0.331697078,,6.453058101,1.468990189,-0.348473598,-0.530209191,0.000147946
4.769981595,1.544299179,0.053669611,-0.331697078,,6.454883262,1.871863526,-0.14992947,-0.127873574,-0.002286263
4.770899871,1.777680573,0.046144769,-0.347953224,,6.455386218,0.20275168,-0.831883578,-1.84428982,0.036462076
4.770899871,1.777680573,0.046144769,-0.347953224,,6.456851402,1.074102188,-0.52730232,-0.930797574,0.010552052
4.770938238,1.421858538,0.055600191,-0.319512643,,6.457916005,0.516161271,-0.737597064,-1.51120856,0.027770112
4.770938238,1.421858538,0.055600191,-0.319512643,,6.458051401,0.547861385,-0.727095615,-1.477788894,0.026825453
4.772122167,1.30074935,0.05634378,-0.30506225,,6.46116631,0.920851737,-0.590240427,-1.088456296,0.015181613
4.772122167,1.30074935,0.05634378,-0.30506225,,6.464319482,1.15996337,-0.490091879,-0.842861663,0.007819696
4.775670024,1.174824935,0.055937581,-0.287391587,,6.464688367,0.335633697,-0.793804169,-1.702193019,0.032441551
4.775670024,1.174824935,0.055937581,-0.287391587,,6.467625079,0.083706066,-0.862919125,-1.971450878,0.038267654
4.777538246,1.050020624,0.054489732,-0.267469873,,6.468146295,0.437385453,-0.762623941,-1.594103662,0.029450137
4.777538246,1.050020624,0.054489732,-0.267469873,,6.470501004,0.621958956,-0.701490892,-1.399491252,0.023982483
4.77982887,0.921123738,0.051896525,-0.244247726,,6.473457033,0.2557209,-0.816719499,-1.787003923,0.033923356
4.77982887,0.921123738,0.051896525,-0.244247726,,6.473685449,0.7218865,-0.665828421,-1.294810828,0.020835261
4.783315215,0.792714278,0.048206807,-0.218414427,,6.475210373,1.58564536,-0.291680847,-0.413209637,-0.001781378
4.783315215,0.792714278,0.048206807,-0.218414427,,6.475440143,0.284049809,-0.80859215,-1.756719805,0.033083761
4.785749672,0.660985409,0.04331107,-0.189204797,,6.475925198,1.743431045,-0.213925054,-0.255792953,-0.00284555
4.785749672,0.660985409,0.04331107,-0.189204797,,6.477300521,1.446120417,-0.358902166,-0.55303302,0.000482745
4.787787726,0.530610335,0.037320363,-0.157546029,,6.477589156,1.887974963,-0.14218939,-0.111811864,-0.002018891
4.787787726,0.530610335,0.037320363,-0.157546029,,6.477787277,1.017384743,-0.550456196,-0.9886093,0.011716332
4.788131083,1.893817574,0.039808763,-0.350883881,,6.486667446,0.771072809,-0.647290375,-1.243182407,0.018808783
4.788131083,1.893817574,0.039808763,-0.350883881,,6.487346244,0.850778708,-0.616971228,-1.160365527,0.016405917
4.789210843,0.398450167,0.03004394,-0.122647207,,6.48957977,0.798551136,-0.636881538,-1.214524023,0.017875513
4.789210843,0.398450167,0.03004394,-0.122647207,,6.489691995,1.262974936,-0.443580536,-0.737762084,0.004573273
4.791047211,0.265852875,0.021452523,-0.084752554,,6.489998587,1.319004277,-0.418043079,-0.681042178,0.003182533
4.791047211,0.265852875,0.021452523,-0.084752554,,6.490683859,1.980816726,-0.096701703,-0.019175441,-0.000427948
4.791666667,2.104166667,0.023835723,-0.353294129,,6.491416267,1.083743168,-0.522184557,-0.920303439,0.009425751
4.792257567,0.1325263,0.011436025,-0.04372739,,6.493547291,0.451091106,-0.757597098,-1.578750049,0.027600366
4.792257567,0.1325263,0.011436025,-0.04372739,,6.494213342,0.607032807,-0.705964484,-1.414440115,0.023245087
4.793478261,0,0,0,,6.496058926,0.014333907,-0.879570237,-2.044966358,0.037424314
4.801035589,1.818881154,0.04357145,-0.346792435,,6.497831581,1.350303867,-0.403421389,-0.649360619,0.002377793
4.806055928,1.602197656,0.051508686,-0.33345333,,6.500840733,1.642523179,-0.263594318,-0.356338698,-0.002315461
4.806055928,1.602197656,0.051508686,-0.33345333,,6.500993126,1.676161261,-0.247079267,-0.322791385,-0.002542815
4.806552417,1.484025068,0.053986199,-0.323185523,,6.505381037,0.951058734,-0.576792378,-1.05631769,0.012859047
4.806552417,1.484025068,0.053986199,-0.323185523,,6.507602886,0.1860654,-0.835223978,-1.86019298,0.033204251
4.807010538,1.721674515,0.047664092,-0.341383168,,6.507832682,1.027600538,-0.545340333,-0.977557899,0.010610732
4.807736345,1.36291588,0.055324075,-0.310251653,,6.515019216,1.183057066,-0.478567465,-0.818611604,0.006236674
4.810102238,1.239399078,0.05553259,-0.29453495,,6.515485874,0.067235857,-0.866147176,-1.987327142,0.035013614
4.813650095,1.113474663,0.054621511,-0.275917829,,6.515616663,1.058787551,-0.532066992,-0.945450653,0.009546884
4.813650095,1.113474663,0.054621511,-0.275917829,,6.519183705,0.351498422,-0.787683072,-1.683463875,0.028618816
4.815729518,0.986624065,0.052659021,-0.254662996,,6.520664588,1.910017283,-0.131889783,-0.089832606,-0.001594229
4.815729518,0.986624065,0.052659021,-0.254662996,,6.522238369,0.699951389,-0.672386481,-1.316405882,0.019334048
4.818266802,1.935018155,0.036620596,-0.348614952,,6.526434112,1.409791484,-0.375094987,-0.589224665,0.000930318
4.818266802,1.935018155,0.036620596,-0.348614952,,6.530690746,0.959664335,-0.572602932,-1.04696446,0.011859698
4.818266802,1.935018155,0.036620596,-0.348614952,,6.530832796,0.171672949,-0.838627453,-1.874792207,0.031882546
4.818266802,1.935018155,0.036620596,-0.348614952,,6.532488594,0.517706034,-0.735035906,-1.507257525,0.023689835
4.818266802,1.935018155,0.036620596,-0.348614952,,6.532602649,0.54440964,-0.726174915,-1.479142351,0.022995906
4.819215863,0.858214604,0.049572842,-0.230443838,,6.533890512,1.557699043,-0.304530977,-0.440941032,-0.00141315
4.822033435,1.97209695,0.03404631,-0.348859458,,6.534780442,1.754136178,-0.2086338,-0.245073353,-0.002603154
4.822033435,1.97209695,0.03404631,-0.348859458,,6.539245535,0.860417252,-0.611758533,-1.149225308,0.01428062
4.822176264,0.72814544,0.045363471,-0.203229458,,6.544380513,0.466320078,-0.751434707,-1.561114008,0.024328071
4.824610721,0.596416572,0.039973715,-0.172898095,,6.544584701,0.365204076,-0.782947915,-1.668130915,0.026732503
4.824610721,0.596416572,0.039973715,-0.172898095,,6.544915511,0.591578309,-0.709904185,-1.429249723,0.021157091
4.825800068,2.009175744,0.031256573,-0.348859957,,6.545950707,0.685025241,-0.677122144,-1.331401084,0.018688124
4.825800068,2.009175744,0.031256573,-0.348859957,,6.548596337,1.13410411,-0.499066554,-0.868016383,0.006865458
4.826341307,0.465148951,0.033442881,-0.139882113,,6.55227516,0.252766499,-0.815750665,-1.787482918,0.028738395
4.826341307,0.465148951,0.033442881,-0.139882113,,6.55462933,0.286396026,-0.806063504,-1.751583051,0.027868017
4.828177675,0.332551658,0.025609165,-0.10366488,,6.557486337,1.770247615,-0.200759823,-0.229016978,-0.002480516
4.8295667,2.046254539,0.028226048,-0.348616936,,6.558132932,1.534829271,-0.315235726,-0.463714435,-0.001124558
4.8295667,2.046254539,0.028226048,-0.348616936,,6.558509273,0.759451364,-0.649623871,-1.253550074,0.016226192
4.829701037,0.199589725,0.016440591,-0.064437525,,6.561966521,0.792071159,-0.637325843,-1.219584666,0.015252889
4.830911392,0.06626315,0.005833483,-0.022139745,,6.564350435,0.135241209,-0.847707677,-1.912712376,0.030213961
4.830911392,0.06626315,0.005833483,-0.022139745,,6.564555244,0.869022854,-0.607743938,-1.139822125,0.013188987
4.831171308,1.860081735,0.040778243,-0.345205557,,6.568982314,1.113081948,-0.507621525,-0.889182827,0.006981159
4.833333333,2.083333333,0.024919391,-0.348125262,,6.572308383,1.237625168,-0.453014469,-0.762576476,0.004075487
4.833333333,2.083333333,0.024919391,-0.348125262,,6.576810889,1.010928356,-0.550440251,-0.993524503,0.009275167
4.833333333,2.083333333,0.024919391,-0.348125262,,6.579851616,0.235681077,-0.820018338,-1.80487946,0.027254004
4.842166595,1.546191597,0.052011992,-0.325977495,,6.57988621,0.961217914,-0.57070132,-1.044512627,0.010407553
4.842166595,1.546191597,0.052011992,-0.325977495,,6.582431423,1.819004738,-0.176993752,-0.180477944,-0.002189674
4.842166595,1.546191597,0.052011992,-0.325977495,,6.583367973,1.037199734,-0.539376851,-0.966515237,0.008481941
4.842166595,1.546191597,0.052011992,-0.325977495,,6.583836465,0.399922615,-0.771434322,-1.63023047,0.023604683
4.842166595,1.546191597,0.052011992,-0.325977495,,6.584783103,0.302666143,-0.800694183,-1.733398603,0.025597302
4.842166595,1.546191597,0.052011992,-0.325977495,,6.584912583,0.651872624,-0.687946007,-1.365128988,0.017771027
4.843121205,1.665668457,0.048805486,-0.334693277,,6.586658424,0.741732386,-0.655477669,-1.271380907,0.015538758
4.843350524,1.42508241,0.053961114,-0.314569709,,6.587185685,1.980816726,-0.098574098,-0.019175706,-0.000349129
4.844075814,1.785145316,0.044194752,-0.341038092,,6.588923954,1.478370439,-0.341738762,-0.520088255,-0.000399212
4.844075814,1.785145316,0.044194752,-0.341038092,,6.591429574,1.625526466,-0.271203319,-0.373091596,-0.001937686
4.844534452,1.303973222,0.054774674,-0.300761733,,6.591610481,1.665458567,-0.251848939,-0.333305246,-0.002165738
4.844534452,1.303973222,0.054774674,-0.300761733,,6.592011927,0.802286954,-0.632718847,-1.208383817,0.013875018
4.848082309,1.178048807,0.054454751,-0.28373182,,6.592224063,0.067235857,-0.864867424,-1.984790774,0.029324376
4.851630167,1.052124391,0.053060903,-0.26414612,,6.595268127,1.910017283,-0.132834861,-0.08982647,-0.001364798
4.851630167,1.052124391,0.053060903,-0.26414612,,6.595321984,0.014333907,-0.878048654,-2.041548026,0.029854138
4.851630167,1.052124391,0.053060903,-0.26414612,,6.596865264,1.286213623,-0.430669454,-0.713225031,0.002799522
4.851630167,1.052124391,0.053060903,-0.26414612,,6.604698259,1.317513213,-0.416307366,-0.681588151,0.00214073
4.851630167,1.052124391,0.053060903,-0.26414612,,6.606066143,0.891144885,-0.598063655,-1.11624274,0.0112988
4.851630167,1.052124391,0.053060903,-0.26414612,,6.6090505,1.384441717,-0.385455771,-0.614200243,0.000955986
4.855116511,0.923714931,0.050573199,-0.241547792,,6.60911331,0.171672949,-0.837168887,-1.872410867,0.026433653
4.858602856,0.79530547,0.047022178,-0.21628927,,6.610643435,1.084448702,-0.518879021,-0.917871126,0.006802103
4.858602856,0.79530547,0.047022178,-0.21628927,,6.611228185,0.754800792,-0.650070193,-1.257307814,0.014256003
4.861037313,0.663576602,0.042290438,-0.187641874,,6.61312444,0.782735565,-0.639601025,-1.228267372,0.013547229
4.861307027,1.901282317,0.037756342,-0.343195855,,6.618253625,0.25370651,-0.814194454,-1.78461607,0.024381957
4.861307027,1.901282317,0.037756342,-0.343195855,,6.618564873,1.684584613,-0.242460209,-0.314220988,-0.002124048
4.86347177,0.531847734,0.036413356,-0.156168774,,6.620207991,1.598377534,-0.284092617,-0.400098552,-0.001653664
4.86347177,0.531847734,0.036413356,-0.156168774,,6.620830942,0.287062048,-0.804547122,-1.749041998,0.023607933
4.86347177,0.531847734,0.036413356,-0.156168774,,6.622010526,0.46522506,-0.750039498,-1.560279905,0.020059162
4.86347177,0.531847734,0.036413356,-0.156168774,,6.622545523,0.590483292,-0.708452739,-1.428565109,0.01740339
4.86347177,0.531847734,0.036413356,-0.156168774,,6.622701525,1.204689522,-0.4665902,-0.795477412,0.004095547
4.86347177,0.531847734,0.036413356,-0.156168774,,6.623774962,0.36408705,-0.781601431,-1.667179648,0.021972042
4.863700101,1.951263616,0.034550047,-0.343875658,,6.625140968,0.683908215,-0.67562452,-1.330838989,0.015265848
4.863700101,1.951263616,0.034550047,-0.343875658,,6.632905251,0.516289597,-0.73319286,-1.506247864,0.018435451
4.865308138,0.399250442,0.029309441,-0.121631894,,6.633019307,0.542993203,-0.724316789,-1.478174334,0.017883739
4.867144506,0.26665315,0.020947648,-0.084193427,,6.633589297,1.770247615,-0.200901047,-0.228972637,-0.002108519
4.867144506,0.26665315,0.020947648,-0.084193427,,6.637381498,0.84880548,-0.613884138,-1.159446815,0.011229803
4.867466734,1.988342411,0.031897113,-0.343878167,,6.64146247,0.186857249,-0.832494499,-1.855339138,0.02396486
4.868354862,0.133326575,0.01119856,-0.043599372,,6.642409787,1.50897001,-0.326592291,-0.489289328,-0.000789997
4.869565217,0,0,0,,6.643087502,1.18366736,-0.475437414,-0.816608542,0.004219303
4.869565217,0,0,0,,6.64516865,0.083706066,-0.859888468,-1.965648657,0.025222278
4.869565217,0,0,0,,6.645838092,0.694916805,-0.6712243,-1.31897616,0.014155446
4.871233367,2.025421205,0.029033927,-0.34363392,,6.650193943,1.887974963,-0.144039269,-0.111788436,-0.001400015
4.874211533,1.826345897,0.041546059,-0.339711775,,6.651277602,0.941398874,-0.577092627,-1.063831788,0.008866827
4.875,2.0625,0.025917791,-0.343157249,,6.654141012,0.350942441,-0.785020751,-1.68041196,0.020389698
4.878964702,1.487248939,0.052250619,-0.318020235,,6.655166299,0.832335743,-0.619857624,-1.17619418,0.01097694
4.878964702,1.487248939,0.052250619,-0.318020235,,6.657311794,1.666559181,-0.251048424,-0.332123185,-0.001887155
4.879231872,1.609662398,0.049599391,-0.327866086,,6.659135818,1.602258769,-0.281960314,-0.396159285,-0.001556772
4.879231872,1.609662398,0.049599391,-0.327866086,,6.65984015,1.977227345,-0.101440405,-0.022762366,-0.000341281
4.88014863,1.366139751,0.053650955,-0.305729606,,6.666229005,1.755063315,-0.208292084,-0.244055766,-0.001957895
4.880186481,1.729139257,0.045682518,-0.335005953,,6.666816211,0.749312372,-0.650924437,-1.262038597,0.012216983
4.882514523,1.24262295,0.053940143,-0.29063969,,6.667932602,1.139016805,-0.494388101,-0.861715739,0.00466959
4.886062381,1.116698535,0.053127178,-0.272633861,,6.668413582,0.772844122,-0.642138574,-1.237593111,0.011695734
4.886062381,1.116698535,0.053127178,-0.272633861,,6.668444054,1.387470503,-0.383168194,-0.610861038,0.000659706
4.89101716,0.989215258,0.051212075,-0.251728102,,6.669157711,0.985291857,-0.558956274,-1.018565005,0.007527417
4.89101716,0.989215258,0.051212075,-0.251728102,,6.669476785,0.017015922,-0.87647607,-2.036635433,0.024253295
4.894503505,0.860805797,0.048260057,-0.228084423,,6.673154209,0.448557644,-0.754396935,-1.576770564,0.017569216
4.897463906,0.730736633,0.044206942,-0.201426882,,6.673820261,0.604499345,-0.702601315,-1.412890664,0.014696977
4.899898362,0.599007765,0.038997986,-0.171634615,,6.675201888,1.512239493,-0.324709164,-0.485925588,-0.000793261
4.899898362,0.599007765,0.038997986,-0.171634615,,6.675624482,1.259202041,-0.441425528,-0.739932002,0.002516206
4.902438601,0.465949226,0.032568474,-0.138654288,,6.675714796,1.011563235,-0.548046421,-0.991589364,0.006871713
4.902438601,0.465949226,0.032568474,-0.138654288,,6.677391831,1.630508315,-0.26830353,-0.367987467,-0.001645964
4.904274969,0.333351933,0.024956807,-0.102897085,,6.677517811,0.098890366,-0.855527256,-1.948588393,0.022697089
4.904347251,1.867546478,0.038681618,-0.337978298,,6.681996296,0.703510462,-0.667406998,-1.309414663,0.012490939
4.904347251,1.867546478,0.038681618,-0.337978298,,6.682034828,1.064629663,-0.525824555,-0.937312481,0.005759894
4.905798331,0.20039,0.016045278,-0.064105473,,6.682833651,1.872790663,-0.151606615,-0.126911537,-0.001392063
4.906740326,1.917527778,0.035712247,-0.338785277,,6.684923107,1.296358094,-0.424581395,-0.70240108,0.001864104
4.907008687,0.067063425,0.005737389,-0.022217091,,6.689489061,0.813890515,-0.626245509,-1.194771745,0.010163607
4.907008687,0.067063425,0.005737389,-0.022217091,,6.694517385,0.615507934,-0.698412665,-1.401021979,0.013543103
4.909133401,1.967509078,0.032415198,-0.339141039,,6.695863822,0.913810463,-0.58725572,-1.091631998,0.008146534
4.909133401,1.967509078,0.032415198,-0.339141039,,6.698587071,1.959201913,-0.110496648,-0.040762535,-0.00052359
4.912207629,1.549705417,0.050240959,-0.320811329,,6.699824877,1.234246424,-0.452169775,-0.764982727,0.002662239
4.912207629,1.549705417,0.050240959,-0.320811329,,6.701236155,1.390739985,-0.381242419,-0.607445307,0.000507887
4.912900034,2.004587872,0.029701595,-0.338901203,,6.70352026,0.435413035,-0.758063911,-1.590069241,0.016113892
4.915762809,1.428306281,0.052189817,-0.309843016,,6.707528396,0.512640339,-0.733030366,-1.508656571,0.014655449
4.915762809,1.428306281,0.052189817,-0.309843016,,6.707663792,0.544340454,-0.722483853,-1.47535848,0.01412959
4.916297148,1.673133199,0.046792288,-0.32884531,,6.707878794,0.035041355,-0.871559073,-2.016396714,0.021218032
4.916297148,1.673133199,0.046792288,-0.32884531,,6.713648623,0.897340725,-0.593464537,-1.108369377,0.007921803
4.916666667,2.041666667,0.02680753,-0.338436846,,6.715913756,1.163449987,-0.483013692,-0.836535101,0.003542706
4.916946737,1.307197093,0.053077073,-0.296644779,,6.716090193,0.206465994,-0.826003394,-1.832772479,0.018659007
4.916946737,1.307197093,0.053077073,-0.296644779,,6.719629236,0.64212113,-0.6886794,-1.372829298,0.01196905
4.917251757,1.792610058,0.042120306,-0.334399838,,6.719742984,0.260345078,-0.810701608,-1.775306962,0.017715912
4.917251757,1.792610058,0.042120306,-0.334399838,,6.721879037,1.981974567,-0.100009628,-0.018017994,-0.000224442
4.920494595,1.181272678,0.052849127,-0.280225477,,6.721914069,0.288443183,-0.802527299,-1.74538922,0.017200387
4.920494595,1.181272678,0.052849127,-0.280225477,,6.723850934,1.300239329,-0.422287071,-0.698288556,0.00153026
4.925768657,1.056700119,0.051545479,-0.261358044,,6.726274074,0.338265383,-0.787702384,-1.692430329,0.016248088
4.925768657,1.056700119,0.051545479,-0.261358044,,6.732233553,0.55740886,-0.717697009,-1.461265336,0.012719906
4.930404153,0.926306124,0.049134468,-0.238963834,,6.732415468,1.240098833,-0.449107786,-0.758880307,0.002251176
4.930404153,0.926306124,0.049134468,-0.238963834,,6.734054183,0.018025433,-0.875583237,-2.03413328,0.019447555
4.933890498,0.797896663,0.045731664,-0.214255321,,6.73415539,1.067228076,-0.523869726,-0.934201497,0.004701637
4.933890498,0.797896663,0.045731664,-0.214255321,,6.73470052,0.864144504,-0.606125949,-1.142325111,0.007833832
4.936324955,0.666167795,0.041174693,-0.186147093,,6.73553405,1.747779954,-0.211858075,-0.251265482,-0.001583782
4.936324955,0.666167795,0.041174693,-0.186147093,,6.737385346,0.963874181,-0.56648569,-1.039793778,0.006205544
4.939751382,0.533948951,0.035458941,-0.155049407,,6.740194033,0.695444966,-0.669338676,-1.316973903,0.010260615
4.939751382,0.533948951,0.035458941,-0.155049407,,6.742096661,0.73887942,-0.653464512,-1.271810383,0.009523465
4.941405433,0.400050717,0.028510583,-0.120658922,,6.742741406,1.493706555,-0.332859249,-0.504272517,-0.000548832
4.941405433,0.400050717,0.028510583,-0.120658922,,6.743367483,1.168379951,-0.480473797,-0.831355148,0.003098023
4.943241801,0.267453425,0.020395461,-0.083658899,,6.743576235,0.497036245,-0.737609353,-1.524493031,0.013039654
4.943241801,0.267453425,0.020395461,-0.083658899,,6.743694032,0.76241117,-0.644723688,-1.247381807,0.00910583
4.944452156,0.13412685,0.010933641,-0.043480246,,6.743963821,0.138460641,-0.844277193,-1.904883197,0.017562187
4.944452156,0.13412685,0.010933641,-0.043480246,,6.745169326,0.995061194,-0.553666356,-1.007790917,0.005548552
4.945652174,0,0,0,,6.7471429,1.268935685,-0.436063353,-0.729712004,0.001751351
4.947387476,1.833810639,0.039410348,-0.332956791,,6.747686799,0.805825019,-0.628340678,-1.202389776,0.008309701
4.947387476,1.833810639,0.039410348,-0.332956791,,6.748093244,1.681575486,-0.243593079,-0.317096446,-0.001471235
4.949005735,1.490762759,0.050445112,-0.313299778,,6.748370753,1.838792499,-0.168267612,-0.160744734,-0.001287985
4.949272905,1.613176218,0.047748044,-0.322520398,,6.749629769,1.553922148,-0.304409264,-0.444181131,-0.000949869
4.949780551,1.883791939,0.036677764,-0.333911597,,6.753884811,0.607280334,-0.700323571,-1.408750823,0.010970827
4.952173626,1.933773239,0.033603998,-0.334421157,,6.758273546,0.544743688,-0.721586202,-1.474179427,0.011634911
4.952560916,1.369363623,0.051853895,-0.301423419,,6.758497859,0.944322792,-0.574059828,-1.059647833,0.005960407
4.952560916,1.369363623,0.051853895,-0.301423419,,6.761609117,1.07215804,-0.521405188,-0.928974896,0.004119207
4.953362424,1.736604,0.043579047,-0.328927371,,6.762867952,1.399777833,-0.376415368,-0.598174895,0.000260586
4.953362424,1.736604,0.043579047,-0.328927371,,6.764448135,0.403567828,-0.767205037,-1.622715073,0.01315862
4.9545667,1.983754539,0.030184033,-0.334457219,,6.765008305,1.577719057,-0.293050992,-0.420444646,-0.001028312
4.9545667,1.983754539,0.030184033,-0.334457219,,6.765008305,1.651206886,-0.258070073,-0.347290877,-0.001310935
4.954926809,1.245846821,0.052227835,-0.286925355,,6.769751624,0.516071187,-0.730988912,-1.504123324,0.01144583
4.954926809,1.245846821,0.052227835,-0.286925355,,6.773016049,0.889113125,-0.595802129,-1.116233849,0.006328798
4.958333333,2.020833333,0.027487112,-0.333948405,,6.775820432,0.596611421,-0.703711387,-1.419632029,0.010114506
4.960200871,1.121274262,0.051490412,-0.269614219,,6.777759917,1.000913603,-0.55081441,-1.001545354,0.004731873
4.96515565,0.993790985,0.049709993,-0.249313159,,6.777792592,1.892144597,-0.14300024,-0.107625192,-0.000878414
4.969791146,0.86339699,0.046840994,-0.225835174,,6.780485968,0.676256253,-0.675671974,-1.336467963,0.008884245
4.969791146,0.86339699,0.046840994,-0.225835174,,6.784232172,0.103006036,-0.853323592,-1.942152408,0.015086826
4.972751547,0.733327826,0.042953557,-0.199709064,,6.784537852,0.949683053,-0.571554586,-1.053936311,0.005226734
4.972751547,0.733327826,0.042953557,-0.199709064,,6.789814174,0.813675191,-0.624776517,-1.193852717,0.006789839
4.976177974,0.601108982,0.037899581,-0.170295427,,6.79495167,0.893628512,-0.593744317,-1.11140427,0.0056451
4.978718213,0.468050443,0.031688564,-0.137809628,,6.79601593,0.975086851,-0.561136708,-1.027830134,0.004635455
4.980372264,0.334152208,0.024250399,-0.102164338,,6.796195096,1.33660609,-0.405027467,-0.661438927,0.000735964
4.980372264,0.334152208,0.024250399,-0.102164338,,6.796709417,1.162141717,-0.482527458,-0.837378825,0.002476409
4.981895626,0.201190275,0.015613468,-0.063790953,,6.797413324,1.911327871,-0.134031347,-0.088512845,-0.000690353
4.981895626,0.201190275,0.015613468,-0.063790953,,6.797413324,1.9848157,-0.099464784,-0.015179079,-0.000139495
4.982248662,1.553219237,0.048359408,-0.315919782,,6.798357826,0.728866907,-0.656380985,-1.281592793,0.007523944
4.982248662,1.553219237,0.048359408,-0.315919782,,6.800254081,0.756801681,-0.646045149,-1.252603261,0.007121059
4.983095643,0.067063425,0.005561201,-0.022038519,,6.802421589,0.66558734,-0.679214488,-1.34735058,0.00810654
4.985803842,1.431820101,0.050359741,-0.305548228,,6.803409704,1.212456991,-0.460488784,-0.786452003,0.001872477
4.986338181,1.676647019,0.044875422,-0.323351513,,6.806281848,0.088672129,-0.856915027,-1.957183521,0.013643112
4.989359023,1.310420965,0.051264269,-0.292739788,,6.806281848,0.0151843,-0.875751754,-2.035975594,0.014148211
4.989359023,1.310420965,0.051264269,-0.292739788,,6.81023462,0.439528704,-0.755357678,-1.584180036,0.010213261
4.989359023,1.310420965,0.051264269,-0.292739788,,6.810811642,1.087754575,-0.514230583,-0.912801596,0.003066605
4.989359023,1.310420965,0.051264269,-0.292739788,,6.811749796,0.818190578,-0.622795151,-1.189002188,0.006016718
4.989359023,1.310420965,0.051264269,-0.292739788,,6.814877294,1.605330385,-0.279750819,-0.392898477,-0.000925704
4.989359023,1.310420965,0.051264269,-0.292739788,,6.815815828,1.236748636,-0.449650218,-0.761880676,0.001519666
4.990427701,1.800074801,0.039943547,-0.328129345,,6.815815828,1.310236464,-0.41679927,-0.687876094,0.000871796
4.990427701,1.800074801,0.039943547,-0.328129345,,6.82070201,0.210500574,-0.823779339,-1.826850752,0.011706564
4.990427701,1.800074801,0.039943547,-0.328129345,,6.822522349,0.592076611,-0.704732629,-1.423876138,0.008030735
4.990427701,1.800074801,0.039943547,-0.328129345,,6.82261537,0.553204425,-0.717973976,-1.46456626,0.008421107
4.990427701,1.800074801,0.039943547,-0.328129345,,6.824397819,0.716201736,-0.660723638,-1.29450949,0.006670411
4.990427701,1.800074801,0.039943547,-0.328129345,,6.826294074,0.762161942,-0.643762251,-1.246828548,0.006123732
4.990427701,1.800074801,0.039943547,-0.328129345,,6.828622059,1.766752566,-0.202865107,-0.232374331,-0.001028565
4.992820775,1.850056101,0.037448316,-0.329231021,,6.830885891,0.342299963,-0.785308343,-1.686702336,0.009960982
4.992820775,1.850056101,0.037448316,-0.329231021,,6.832284296,0.455563397,-0.750019593,-1.567052546,0.008872403
4.994633085,1.185848406,0.051095947,-0.276989268,,6.832284296,0.529051226,-0.725979434,-1.489800613,0.008187668
4.99521385,1.9000374,0.034628741,-0.329906927,,6.835829415,1.440639235,-0.356973463,-0.557115786,-0.000104485
4.99521385,1.9000374,0.034628741,-0.329906927,,6.836036998,1.040352866,-0.533865736,-0.960929345,0.003084487
4.997606925,1.9500187,0.031419706,-0.330110426,,6.837593633,0.885324769,-0.59654322,-1.119638568,0.004528729
4.997606925,1.9500187,0.031419706,-0.330110426,,6.84040545,1.928775216,-0.126051476,-0.071118225,-0.00045575
4.999907148,1.061275846,0.049916628,-0.258709757,,6.841021506,0.736922496,-0.652963968,-1.272875144,0.005836771
4.999907148,1.061275846,0.049916628,-0.258709757,,6.841746609,0.923709344,-0.581326086,-1.080184891,0.004051015
5,2,0.027697986,-0.32970961,,6.843087146,0.645400447,-0.685951323,-1.368023892,0.006606779
5,2,0.027697986,-0.32970961,,6.847391932,0.071224784,-0.861195355,-1.975369257,0.010835359
5,2,0.027697986,-0.32970961,,6.850579912,0.827005284,-0.619034233,-1.179627507,0.004680532
5.004542644,0.930881851,0.047656496,-0.236904997,,6.851415535,0.945109046,-0.572677214,-1.058188798,0.003611705
5.00917814,0.800487856,0.044343824,-0.212324498,,6.851415535,1.018596875,-0.542745246,-0.983043437,0.002974566
5.00917814,0.800487856,0.044343824,-0.212324498,,6.854902649,1.276086197,-0.431835924,-0.722119308,0.000902329
5.00917814,0.800487856,0.044343824,-0.212324498,,6.855061383,0.265563923,-0.807819589,-1.767884823,0.009083146
5.00917814,0.800487856,0.044343824,-0.212324498,,6.857232468,0.293662028,-0.799601798,-1.738019102,0.008750716
5.00917814,0.800487856,0.044343824,-0.212324498,,6.867876246,0.47878154,-0.742227735,-1.542307389,0.006812517
5.00917814,0.800487856,0.044343824,-0.212324498,,6.868505265,1.706117106,-0.231754475,-0.292635623,-0.000805417
5.012604567,0.668269012,0.039935176,-0.18459634,,6.86967088,1.130963186,-0.495308559,-0.868676386,0.001778348
5.016030993,0.536050168,0.03442713,-0.153989796,,6.87004179,1.485278041,-0.336046474,-0.512480328,-0.000283422
5.016030993,0.536050168,0.03442713,-0.153989796,,6.870194646,0.67657591,-0.674636571,-1.335362303,0.005220411
5.017685044,0.402151934,0.027721008,-0.120074057,,6.871792017,0.788779789,-0.633381279,-1.218979652,0.004302079
5.019046768,1.494276579,0.048537456,-0.308850572,,6.881599967,1.798958869,-0.187606233,-0.200346623,-0.0006824
5.019313938,1.616690038,0.045798203,-0.317499814,,6.88294753,0.985704052,-0.555999334,-1.016499679,0.002557663
5.019339095,0.2682537,0.019799452,-0.083151782,,6.88349523,0.196191764,-0.827364776,-1.841485145,0.007670824
5.019339095,0.2682537,0.019799452,-0.083151782,,6.884198141,0.767518534,-0.641265859,-1.240906196,0.00402979
5.019339095,0.2682537,0.019799452,-0.083151782,,6.884198141,0.694030705,-0.668256426,-1.317127358,0.004534925
5.019339095,0.2682537,0.019799452,-0.083151782,,6.885420327,1.50907495,-0.324870653,-0.488724437,-0.000331961
5.019339095,0.2682537,0.019799452,-0.083151782,,6.885420327,1.675748506,-0.246182736,-0.32281831,-0.000684393
5.019339095,0.2682537,0.019799452,-0.083151782,,6.888960106,0.602848678,-0.700463629,-1.412114284,0.004940456
5.020539113,0.13412685,0.010584103,-0.04312354,,6.89057285,1.38946149,-0.380286965,-0.608235744,0.000129887
5.02173913,0,0,0,,6.896173772,0.360276956,-0.779390915,-1.667122875,0.006009359
5.022601949,1.372877443,0.050009172,-0.29753284,,6.896452871,0.856493448,-0.607323506,-1.14899731,0.003051101
5.022601949,1.372877443,0.050009172,-0.29753284,,6.897787459,1.172126663,-0.477375177,-0.82690933,0.001162623
5.023403457,1.74011782,0.041616541,-0.323325073,,6.9012207,1.818142143,-0.178526986,-0.18126829,-0.000545712
5.023403457,1.74011782,0.041616541,-0.323325073,,6.9012207,1.9848157,-0.100151724,-0.015179084,-6.81216E-05
5.029065299,1.250422549,0.0503647,-0.283490375,,6.905544906,0.181857857,-0.831242006,-1.85661331,0.006276498
5.029065299,1.250422549,0.0503647,-0.283490375,,6.905544906,0.0151843,-0.87528714,-2.034940079,0.006882925
5.034339362,1.12584999,0.049743911,-0.266760276,,6.907965303,1.624302997,-0.270556446,-0.373965312,-0.000498095
5.039294141,0.998366713,0.048103088,-0.247030656,,6.907965303,1.552263065,-0.304551868,-0.44566648,-0.00037261
5.040562931,1.850056101,0.036239179,-0.32511672,,6.908554522,0.567138404,-0.712595645,-1.449350362,0.004254164
5.040562931,1.850056101,0.036239179,-0.32511672,,6.908773144,0.727275411,-0.656006053,-1.282488349,0.003389333
5.042956006,1.9000374,0.033436496,-0.325632157,,6.910193583,1.196418307,-0.466732259,-0.802326385,0.000905723
5.043929637,0.867972717,0.045397957,-0.22411547,,6.910193583,1.363091864,-0.392259575,-0.634628644,0.000199082
5.043929637,0.867972717,0.045397957,-0.22411547,,6.912173118,1.096244449,-0.509852107,-0.903787138,0.001359592
5.045349081,1.9500187,0.030218305,-0.325666382,,6.917882728,0.886415199,-0.595531527,-1.11813874,0.002270424
5.047742156,2,0.02635267,-0.325220336,,6.918223448,0.542985206,-0.720709813,-1.474600704,0.003916114
5.049031159,0.735429043,0.041576589,-0.197956695,,6.918223448,0.376311649,-0.774366852,-1.650041147,0.004663064
5.049031159,0.735429043,0.041576589,-0.197956695,,6.920656756,1.856735283,-0.160287042,-0.142874678,-0.000384396
5.052289695,1.556733057,0.046386949,-0.31134377,,6.920656756,1.928775216,-0.126374336,-0.07111712,-0.000227354
5.052289695,1.556733057,0.046386949,-0.31134377,,6.924130121,0.143264717,-0.841741701,-1.897699603,0.005165469
5.052457586,0.603210199,0.036721615,-0.16903127,,6.924130121,0.071224784,-0.860872481,-1.974752383,0.005379313
5.054997825,0.47015166,0.030740435,-0.137016352,,6.927551654,1.074488458,-0.518968467,-0.925861082,0.001208004
5.055844875,1.435333921,0.048436311,-0.301516307,,6.927551654,0.907814901,-0.587051654,-1.096130464,0.001910217
5.055844875,1.435333921,0.048436311,-0.301516307,,6.927864112,1.316947599,-0.413120725,-0.680904764,0.00030305
5.056379214,1.680160839,0.042876931,-0.318243162,,6.927864112,1.244907666,-0.445324393,-0.753373972,0.000548082
5.056379214,1.680160839,0.042876931,-0.318243162,,6.929532641,0.621533971,-0.693756238,-1.392416107,0.0030551
5.056651875,0.336253425,0.023567896,-0.101824444,,6.931130012,0.826923578,-0.6185408,-1.179346114,0.002147451
5.056651875,0.336253425,0.023567896,-0.101824444,,6.934314002,0.489553608,-0.738351678,-1.530609559,0.003342431
5.057982582,0.201190275,0.015094091,-0.063258385,,6.934314002,0.417513675,-0.761470797,-1.606461606,0.003601107
5.057982582,0.201190275,0.015094091,-0.063258385,,6.941806768,1.028912663,-0.537941023,-0.972231811,0.001120582
5.058223912,1.797285875,0.038306702,-0.322480709,,6.941806768,0.95687273,-0.567391761,-1.045813699,0.001364368
5.058223912,1.797285875,0.038306702,-0.322480709,,6.943536136,0.638988766,-0.687584686,-1.374167466,0.002389758
5.0591826,0.067063425,0.005374174,-0.021867293,,6.943536136,0.805662323,-0.626600809,-1.201252392,0.001831467
5.060041767,1.316801201,0.049383491,-0.289510582,,6.954623606,0.266679343,-0.807040566,-1.766091076,0.002836384
5.060041767,1.316801201,0.049383491,-0.289510582,,6.954646104,0.756763575,-0.644933483,-1.251785961,0.001603234
5.068771576,1.190424133,0.049238551,-0.273947301,,6.954646104,0.684723642,-0.67127566,-1.326529,0.001797102
5.068771576,1.190424133,0.049238551,-0.273947301,,6.956627997,1.727563925,-0.221550388,-0.27130409,-0.000268254
5.074045638,1.065851574,0.048186769,-0.256218917,,6.957200924,0.300034881,-0.797264335,-1.730669744,0.002605754
5.074045638,1.065851574,0.048186769,-0.256218917,,6.958452021,1.431625526,-0.36069461,-0.565994748,-2.02639E-05
5.078681134,0.935457579,0.046082019,-0.23496991,,6.967016555,1.139847043,-0.491063337,-0.859474066,0.000429335
5.078681134,0.935457579,0.046082019,-0.23496991,,6.971898235,0.579380312,-0.708203307,-1.436341495,0.001286143
5.085666568,0.804890441,0.042892272,-0.210822811,,6.97379449,0.856978506,-0.606835725,-1.148297615,0.000769146
5.085666568,0.804890441,0.042892272,-0.210822811,,6.976708034,1.69151306,-0.238659497,-0.30713138,-0.000142758
5.088884178,0.670370229,0.038615284,-0.183137281,,6.976708034,1.459875072,-0.34760241,-0.537768496,-3.42948E-05
5.088884178,0.670370229,0.038615284,-0.183137281,,6.979919963,1.981974567,-0.101675676,-0.018017893,-1.63919E-05
5.089087802,1.497790399,0.046547942,-0.304704651,,6.979919963,1.75033658,-0.210744122,-0.248671208,-0.000123643
5.089087802,1.497790399,0.046547942,-0.304704651,,6.980379267,1.621614611,-0.271766681,-0.376623298,-0.000106188
5.089354971,1.620203858,0.043774776,-0.312849486,,6.980379267,1.528428883,-0.315638092,-0.469386417,-6.81886E-05
5.089354971,1.620203858,0.043774776,-0.312849486,,6.980798996,0.018025433,-0.874429825,-2.031583716,0.001396364
5.090698161,1.9000374,0.032257097,-0.321715946,,6.980798996,0.24966342,-0.811917998,-1.784124488,0.001215834
5.090698161,1.9000374,0.032257097,-0.321715946,,6.981743987,1.168683895,-0.478601046,-0.830275475,0.000209486
5.091199669,1.737328894,0.03989974,-0.318122023,,6.981743987,1.400321882,-0.375078217,-0.597295893,1.19353E-05
5.092310605,0.538151386,0.0333247,-0.15299615,,6.983084938,1.911327871,-0.134652329,-0.088509697,-5.79382E-05
5.092310605,0.538151386,0.0333247,-0.15299615,,6.983084938,1.818142143,-0.178597137,-0.181266028,-9.34389E-05
5.093091236,1.9500187,0.029118418,-0.321701855,,6.983376313,0.319069824,-0.791568775,-1.710436996,0.000996264
5.093284693,1.379257679,0.04803542,-0.294137114,,6.983376313,0.550707812,-0.717928152,-1.466336528,0.000788121
5.093964656,0.404253151,0.026872186,-0.119531813,,6.98382542,0.088672129,-0.856203943,-1.955881911,0.001135695
5.093964656,0.404253151,0.026872186,-0.119531813,,6.98382542,0.181857857,-0.831053927,-1.856325957,0.00107394
5.095484311,2,0.025459659,-0.321307402,,6.984621463,1.331286691,-0.406533959,-0.666472694,5.38202E-05
5.09589369,0.269291578,0.019173835,-0.08273789,,6.984621463,1.238100963,-0.448212016,-0.760186205,0.000121458
5.09589369,0.269291578,0.019173835,-0.08273789,,6.985272568,0.882382303,-0.596919065,-1.122158399,0.000409944
5.096626069,0.13412685,0.010214862,-0.042782719,,6.985272568,1.114020291,-0.502090412,-0.885645257,0.000212382
5.096626069,0.13412685,0.010214862,-0.042782719,,6.985996505,0.38730022,-0.770801276,-1.638234143,0.000789833
5.097826087,0,0,0,,6.985996505,0.480485948,-0.741194878,-1.540025052,0.000719268
5.099748044,1.256802785,0.048496019,-0.280662816,,6.987593876,1.045077669,-0.531135159,-0.955714267,0.000226913
5.108359143,1.847267175,0.034644057,-0.319744553,,6.987593876,0.951891941,-0.569303528,-1.050856223,0.000294177
5.108477852,1.130425717,0.047902005,-0.264090245,,6.988521922,0.83173906,-0.616556903,-1.174286154,0.000354071
5.108477852,1.130425717,0.047902005,-0.264090245,,6.988521922,0.600101072,-0.701060337,-1.414667763,0.000511554
5.113432632,1.00294244,0.046403465,-0.244895153,,6.990331074,0.669069599,-0.676828055,-1.342763097,0.000391938
5.113432632,1.00294244,0.046403465,-0.244895153,,6.990331074,0.762255327,-0.642831547,-1.246057154,0.000338433
5.120418065,0.872375302,0.043809285,-0.222403319,,,,,,
5.122330728,1.560246877,0.044348223,-0.307117525,,,,,,
5.122330728,1.560246877,0.044348223,-0.307117525,,,,,,
5.122330728,1.560246877,0.044348223,-0.307117525,,,,,,
5.122330728,1.560246877,0.044348223,-0.307117525,,,,,,
5.122330728,1.560246877,0.044348223,-0.307117525,,,,,,
5.122330728,1.560246877,0.044348223,-0.307117525,,,,,,
5.124175426,1.677371913,0.041096622,-0.313438107,,,,,,
5.125519587,0.739831628,0.040185873,-0.19677675,,,,,,
5.126020124,1.794496949,0.036639095,-0.317394506,,,,,,
5.126020124,1.794496949,0.036639095,-0.317394506,,,,,,
5.12652762,1.441714157,0.046381975,-0.297980894,,,,,,
5.128737197,0.605311416,0.035471982,-0.167848723,,,,,,
5.128737197,0.605311416,0.035471982,-0.167848723,,,,,,
5.130724512,1.323181436,0.047420086,-0.286500782,,,,,,
5.130724512,1.323181436,0.047420086,-0.286500782,,,,,,
5.131277436,0.472252877,0.029730326,-0.136279404,,,,,,
5.131277436,0.472252877,0.029730326,-0.136279404,,,,,,
5.13320647,0.337291304,0.022772395,-0.101227069,,,,,,
5.134537177,0.202228153,0.014611968,-0.063053723,,,,,,
5.135269556,0.067063425,0.005177522,-0.021703823,,,,,,
5.135269556,0.067063425,0.005177522,-0.021703823,,,,,,
5.13945432,1.196804369,0.047390606,-0.27149943,,,,,,
5.140833392,1.9500187,0.028136906,-0.318177421,,,,,,
5.140833392,1.9500187,0.028136906,-0.318177421,,,,,,
5.143226467,2,0.024813942,-0.317848095,,,,,,
5.148184129,1.070427301,0.046369693,-0.253900402,,,,,,
5.148184129,1.070427301,0.046369693,-0.253900402,,,,,,
5.148184129,1.070427301,0.046369693,-0.253900402,,,,,,
5.148184129,1.070427301,0.046369693,-0.253900402,,,,,,
5.148184129,1.070427301,0.046369693,-0.253900402,,,,,,
5.148184129,1.070427301,0.046369693,-0.253900402,,,,,,
5.155169562,0.939860164,0.044363064,-0.233062261,,,,,,
5.157151183,1.617414932,0.041943624,-0.30840302,,,,,,
5.157151183,1.617414932,0.041943624,-0.30840302,,,,,,
5.158494373,1.897248475,0.030838073,-0.316789205,,,,,,
5.158995881,1.734539968,0.038160851,-0.313432558,,,,,,
5.159770546,1.504170635,0.044429523,-0.301061528,,,,,,
5.159770546,1.504170635,0.044429523,-0.301061528,,,,,,
5.162154996,0.809293026,0.041355757,-0.209434435,,,,,,
5.162154996,0.809293026,0.041355757,-0.209434435,,,,,,
5.163967438,1.385637914,0.045991008,-0.290995036,,,,,,
5.165372606,0.674772814,0.037297648,-0.182261721,,,,,,
5.168590217,0.540252603,0.032158954,-0.15207372,,,,,,
5.168590217,0.540252603,0.032158954,-0.15207372,,,,,,
5.168590217,0.540252603,0.032158954,-0.15207372,,,,,,
5.168590217,0.540252603,0.032158954,-0.15207372,,,,,,
5.168590217,0.540252603,0.032158954,-0.15207372,,,,,,
5.168590217,0.540252603,0.032158954,-0.15207372,,,,,,
5.170430788,1.26318302,0.046552119,-0.278040914,,,,,,
5.17051925,0.40529103,0.025912509,-0.118758127,,,,,,
5.172448284,0.270329456,0.018510843,-0.082355079,,,,,,
5.172448284,0.270329456,0.018510843,-0.082355079,,,,,,
5.173180664,0.135164728,0.009896879,-0.042772838,,,,,,
5.173913043,0,0,0,,,,,,
5.173913043,0,0,0,,,,,,
5.173913043,0,0,0,,,,,,
5.176155354,1.844478249,0.033098752,-0.315032569,,,,,,
5.179160597,1.136805953,0.046083079,-0.262001083,,,,,,
5.179160597,1.136805953,0.046083079,-0.262001083,,,,,,
5.186326556,1.565174075,0.042412218,-0.303688037,,,,,,
5.186326556,1.565174075,0.042412218,-0.303688037,,,,,,
5.18992106,1.007345025,0.044562437,-0.242809172,,,,,,
5.18992106,1.007345025,0.044562437,-0.242809172,,,,,,
5.190968622,2,0.024269507,-0.314775442,,,,,,
5.190968622,2,0.024269507,-0.314775442,,,,,,
5.190968622,2,0.024269507,-0.314775442,,,,,,
5.191971637,1.674582988,0.039298038,-0.309100361,,,,,,
5.191971637,1.674582988,0.039298038,-0.309100361,,,,,,
5.193816335,1.791708024,0.03499592,-0.312893611,,,,,,
5.193816335,1.791708024,0.03499592,-0.312893611,,,,,,
5.196906493,0.876777887,0.042139288,-0.220825748,,,,,,
5.197210364,1.448094392,0.044272661,-0.294736355,,,,,,
5.197210364,1.448094392,0.044272661,-0.294736355,,,,,,
5.201407256,1.329561672,0.045392777,-0.283728221,,,,,,
5.201407256,1.329561672,0.045392777,-0.283728221,,,,,,
5.202008015,0.744234213,0.038717832,-0.195698159,,,,,,
5.205225626,0.609714001,0.034240044,-0.16726074,,,,,,
5.205225626,0.609714001,0.034240044,-0.16726074,,,,,,
5.207832031,0.473290755,0.028612724,-0.135338119,,,,,,
5.207832031,0.473290755,0.028612724,-0.135338119,,,,,,
5.208629603,1.947229774,0.027093403,-0.313812311,,,,,,
5.208629603,1.947229774,0.027093403,-0.313812311,,,,,,
5.209761065,0.338329182,0.021935738,-0.100672863,,,,,,
5.210137065,1.203184604,0.04547418,-0.26924249,,,,,,
5.210137065,1.203184604,0.04547418,-0.26924249,,,,,,
5.211091771,0.203266031,0.014100986,-0.062870698,,,,,,
5.211824151,0.068101303,0.005045685,-0.021874749,,,,,,
5.211824151,0.068101303,0.005045685,-0.021874749,,,,,,
5.22114701,1.62234213,0.039999034,-0.30498488,,,,,,
5.223766374,1.509097832,0.042496455,-0.297988927,,,,,,
5.224077838,1.079213076,0.044470874,-0.252303177,,,,,,
5.224077838,1.079213076,0.044470874,-0.252303177,,,,,,
5.226290585,1.894459549,0.029540363,-0.312544742,,,,,,
5.226290585,1.894459549,0.029540363,-0.312544742,,,,,,
5.226792092,1.731751043,0.036438354,-0.309258084,,,,,,
5.226792092,1.731751043,0.036438354,-0.309258084,,,,,,
5.231657991,0.944262749,0.042568121,-0.231311856,,,,,,
5.231657991,0.944262749,0.042568121,-0.231311856,,,,,,
5.234650183,1.39201815,0.043897447,-0.288122916,,,,,,
5.234650183,1.39201815,0.043897447,-0.288122916,,,,,,
5.238643424,0.813695611,0.039745548,-0.208167742,,,,,,
5.238643424,0.813695611,0.039745548,-0.208167742,,,,,,
5.241113533,1.269563256,0.044550475,-0.275638121,,,,,,
5.241113533,1.269563256,0.044550475,-0.275638121,,,,,,
5.241861035,0.679175399,0.035909881,-0.181475383,,,,,,
5.241861035,0.679175399,0.035909881,-0.181475383,,,,,,
5.242325038,2,0.023711269,-0.311790476,,,,,,
5.243951566,1.841689323,0.031633751,-0.310929104,,,,,,
5.243951566,1.841689323,0.031633751,-0.310929104,,,,,,
5.246161815,0.542799431,0.030932823,-0.151308209,,,,,,
5.246161815,0.542799431,0.030932823,-0.151308209,,,,,,
5.247073845,0.406328908,0.024909351,-0.118040682,,,,,,
5.247073845,0.406328908,0.024909351,-0.118040682,,,,,,
5.249002879,0.271367335,0.017814783,-0.082005194,,,,,,
5.249002879,0.271367335,0.017814783,-0.082005194,,,,,,
5.249735258,0.136202607,0.009558038,-0.042775394,,,,,,
5.249735258,0.136202607,0.009558038,-0.042775394,,,,,,
5.25,0,0,0,,,,,,
5.250322383,1.570101272,0.04046657,-0.300568921,,,,,,
5.250322383,1.570101272,0.04046657,-0.300568921,,,,,,
5.255054306,1.145591728,0.044069544,-0.260206059,,,,,,
5.255967465,1.679510185,0.037379371,-0.305737784,,,,,,
5.259986019,1.947229774,0.026278499,-0.310914937,,,,,,
5.261206192,1.45302159,0.042348252,-0.291994584,,,,,,
5.261612547,1.788919098,0.03341011,-0.308939226,,,,,,
5.261612547,1.788919098,0.03341011,-0.308939226,,,,,,
5.261612547,1.788919098,0.03341011,-0.308939226,,,,,,
5.261612547,1.788919098,0.03341011,-0.308939226,,,,,,
5.261612547,1.788919098,0.03341011,-0.308939226,,,,,,
5.261612547,1.788919098,0.03341011,-0.308939226,,,,,,
5.265814769,1.0161308,0.042720841,-0.241589788,,,,,,
5.272090001,1.335941907,0.043321025,-0.281204778,,,,,,
5.272090001,1.335941907,0.043321025,-0.281204778,,,,,,
5.272090001,1.335941907,0.043321025,-0.281204778,,,,,,
5.272090001,1.335941907,0.043321025,-0.281204778,,,,,,
5.272090001,1.335941907,0.043321025,-0.281204778,,,,,,
5.272090001,1.335941907,0.043321025,-0.281204778,,,,,,
5.273394922,0.881180472,0.040400584,-0.219390708,,,,,,
5.273394922,0.881180472,0.040400584,-0.219390708,,,,,,
5.277647,1.894459549,0.028536011,-0.309732704,,,,,,
5.278496444,0.748636798,0.037182927,-0.194727611,,,,,,
5.278496444,0.748636798,0.037182927,-0.194727611,,,,,,
5.282797224,0.61226083,0.032858956,-0.166323266,,,,,,
5.285142838,1.627269328,0.038069297,-0.301907288,,,,,,
5.285403629,0.475837584,0.027499286,-0.134818247,,,,,,
5.286030774,1.211970379,0.043358996,-0.267271874,,,,,,
5.286315659,0.339367061,0.021063265,-0.100163785,,,,,,
5.286315659,0.339367061,0.021063265,-0.100163785,,,,,,
5.287646366,0.20430391,0.013564487,-0.062710605,,,,,,
5.287646366,0.20430391,0.013564487,-0.062710605,,,,,,
5.287762202,1.51402503,0.040554913,-0.295198681,,,,,,
5.287911108,0.068101303,0.00483048,-0.02172555,,,,,,
5.29078792,1.73667824,0.034592405,-0.305999159,,,,,,
5.29078792,1.73667824,0.034592405,-0.305999159,,,,,,
5.293681453,2,0.023194745,-0.309105574,,,,,,
5.295307981,1.841689323,0.030494114,-0.30820923,,,,,,
5.295307981,1.841689323,0.030494114,-0.30820923,,,,,,
5.29864601,1.396945348,0.041987046,-0.285689202,,,,,,
5.29864601,1.396945348,0.041987046,-0.285689202,,,,,,
5.299971548,1.087998851,0.042502269,-0.25087672,,,,,,
5.299971548,1.087998851,0.042502269,-0.25087672,,,,,,
5.3075517,0.953048523,0.040792544,-0.230449579,,,,,,
5.311342434,1.947229774,0.025519466,-0.308308938,,,,,,
5.314318211,1.57502847,0.03853185,-0.297759604,,,,,,
5.314318211,1.57502847,0.03853185,-0.297759604,,,,,,
5.315131853,0.818098196,0.03807326,-0.2070289,,,,,,
5.315131853,0.818098196,0.03807326,-0.2070289,,,,,,
5.315131853,0.818098196,0.03807326,-0.2070289,,,,,,
5.315131853,0.818098196,0.03807326,-0.2070289,,,,,,
5.315131853,0.818098196,0.03807326,-0.2070289,,,,,,
5.315131853,0.818098196,0.03807326,-0.2070289,,,,,,
5.317007243,1.278349031,0.042349528,-0.273516946,,,,,,
5.317007243,1.278349031,0.042349528,-0.273516946,,,,,,
5.319002423,1.789979494,0.031992881,-0.30605483,,,,,,
5.319002423,1.789979494,0.031992881,-0.30605483,,,,,,
5.319432633,0.681722228,0.034382867,-0.180379388,,,,,,
5.319963293,1.684437383,0.035504173,-0.302741749,,,,,,
5.319963293,1.684437383,0.035504173,-0.302741749,,,,,,
5.323733413,0.54534626,0.029655821,-0.150621564,,,,,,
5.323733413,0.54534626,0.029655821,-0.150621564,,,,,,
5.324645443,0.408875736,0.023923679,-0.117750671,,,,,,
5.32520202,1.457948788,0.040416162,-0.2895098,,,,,,
5.32520202,1.457948788,0.040416162,-0.2895098,,,,,,
5.325557473,0.272405213,0.017090073,-0.081689635,,,,,,
5.325557473,0.272405213,0.017090073,-0.081689635,,,,,,
5.325557473,0.272405213,0.017090073,-0.081689635,,,,,,
5.325557473,0.272405213,0.017090073,-0.081689635,,,,,,
5.325557473,0.272405213,0.017090073,-0.081689635,,,,,,
5.325557473,0.272405213,0.017090073,-0.081689635,,,,,,
5.325822215,0.136202607,0.009138239,-0.04248197,,,,,,
5.326086957,0,0,0,,,,,,
5.329003415,1.894459549,0.027591302,-0.307203176,,,,,,
5.329003415,1.894459549,0.027591302,-0.307203176,,,,,,
5.330948016,1.154377502,0.041997576,-0.258608487,,,,,,
5.339722971,1.349224986,0.041256821,-0.27970442,,,,,,
5.339722971,1.349224986,0.041256821,-0.27970442,,,,,,
5.341708479,1.024916574,0.040814611,-0.240523551,,,,,,
5.345037868,2,0.022699868,-0.306682765,,,,,,
5.348177796,1.737738637,0.033108059,-0.303299655,,,,,,
5.349138666,1.632196525,0.036174017,-0.299160824,,,,,,
5.349138666,1.632196525,0.036174017,-0.299160824,,,,,,
5.349288631,0.889966247,0.03869987,-0.218866122,,,,,,
5.349288631,0.889966247,0.03869987,-0.218866122,,,,,,
5.351758029,1.518952228,0.038622366,-0.292688312,,,,,,
5.351758029,1.518952228,0.038622366,-0.292688312,,,,,,
5.352697858,1.84274972,0.029244408,-0.305503763,,,,,,
5.356068042,0.751183626,0.035520004,-0.193488121,,,,,,
5.356068042,0.751183626,0.035520004,-0.193488121,,,,,,
5.360368822,0.614807658,0.031429036,-0.165481036,,,,,,
5.361924484,1.220756154,0.0411992,-0.265526303,,,,,,
5.361924484,1.220756154,0.0411992,-0.265526303,,,,,,
5.362698849,1.947229774,0.024800149,-0.305959582,,,,,,
5.362698849,1.947229774,0.024800149,-0.305959582,,,,,,
5.362975227,0.478384412,0.02634143,-0.134364254,,,,,,
5.363733323,0.20430391,0.012950613,-0.062279459,,,,,,
5.363733323,0.20430391,0.012950613,-0.062279459,,,,,,
5.363887257,0.341913889,0.020221148,-0.100088539,,,,,,
5.363887257,0.341913889,0.020221148,-0.100088539,,,,,,
5.363998064,0.068101303,0.00460949,-0.021585023,,,,,,
5.366278981,1.410228426,0.039865897,-0.284045635,,,,,,
5.375865258,1.096784625,0.040480694,-0.249629419,,,,,,
5.375865258,1.096784625,0.040480694,-0.249629419,,,,,,
5.3763923,1.791039891,0.030637133,-0.303481815,,,,,,
5.3763923,1.791039891,0.030637133,-0.303481815,,,,,,
5.377353169,1.685497779,0.033968421,-0.300220323,,,,,,
5.378314039,1.579955668,0.036624712,-0.295250823,,,,,,
5.378314039,1.579955668,0.036624712,-0.295250823,,,,,,
5.378314039,1.579955668,0.036624712,-0.295250823,,,,,,
5.378314039,1.579955668,0.036624712,-0.295250823,,,,,,
5.378314039,1.579955668,0.036624712,-0.295250823,,,,,,
5.378314039,1.579955668,0.036624712,-0.295250823,,,,,,
5.38344541,0.961834298,0.038956863,-0.229723335,,,,,,
5.38344541,0.961834298,0.038956863,-0.229723335,,,,,,
5.384640213,1.291632109,0.040337092,-0.272398907,,,,,,
5.386393292,1.895519945,0.026548893,-0.304679905,,,,,,
5.39283499,1.471231866,0.038259114,-0.287748302,,,,,,
5.394907428,0.823930865,0.036301501,-0.206204869,,,,,,
5.394907428,0.823930865,0.036301501,-0.206204869,,,,,,
5.396394283,2,0.022212676,-0.304492871,,,,,,
5.396394283,2,0.022212676,-0.304492871,,,,,,
5.396394283,2,0.022212676,-0.304492871,,,,,,
5.397004231,0.684269056,0.032810476,-0.179395637,,,,,,
5.397004231,0.684269056,0.032810476,-0.179395637,,,,,,
5.401305011,0.547893088,0.028336167,-0.150016082,,,,,,
5.401305011,0.547893088,0.028336167,-0.150016082,,,,,,
5.401909172,0.136202607,0.008708447,-0.042206838,,,,,,
5.401909172,0.136202607,0.008708447,-0.042206838,,,,,,
5.402173913,0,0,0,,,,,,
5.402217041,0.411422565,0.022899539,-0.117513993,,,,,,
5.402217041,0.411422565,0.022899539,-0.117513993,,,,,,
5.402754329,0.273168291,0.016320175,-0.081329594,,,,,,
5.402754329,0.273168291,0.016320175,-0.081329594,,,,,,
5.405567673,1.738799033,0.031675321,-0.300885665,,,,,,
5.406528542,1.633256922,0.034599141,-0.296809754,,,,,,
5.406528542,1.633256922,0.034599141,-0.296809754,,,,,,
5.406841726,1.163163277,0.039885394,-0.257214637,,,,,,
5.406841726,1.163163277,0.039885394,-0.257214637,,,,,,
5.407355941,1.362508065,0.039176043,-0.278391766,,,,,,
5.407355941,1.362508065,0.039176043,-0.278391766,,,,,,
5.410087734,1.843810116,0.028057629,-0.303095072,,,,,,
5.417602189,1.033702349,0.03885903,-0.239616816,,,,,,
5.417602189,1.033702349,0.03885903,-0.239616816,,,,,,
5.419391,1.532235306,0.036455016,-0.290835925,,,,,,
5.419391,1.532235306,0.036455016,-0.290835925,,,,,,
5.420088726,1.948290171,0.023986434,-0.303605384,,,,,,
5.420088726,1.948290171,0.023986434,-0.303605384,,,,,,
5.428762281,1.588072905,0.035056843,-0.293701348,,,,,,
5.428762281,1.588072905,0.035056843,-0.293701348,,,,,,
5.429064207,0.895798916,0.03679628,-0.217876663,,,,,,
5.429557454,1.234039232,0.039242705,-0.264768597,,,,,,
5.433782177,1.792100287,0.029338108,-0.301187476,,,,,,
5.433782177,1.792100287,0.029338108,-0.301187476,,,,,,
5.433911951,1.423511505,0.037746079,-0.282612404,,,,,,
5.434743046,1.686558176,0.032476393,-0.297960426,,,,,,
5.434743046,1.686558176,0.032476393,-0.297960426,,,,,,
5.435843617,0.757016295,0.033844242,-0.192960292,,,,,,
5.43794042,0.617354487,0.029959377,-0.164735724,,,,,,
5.43794042,0.617354487,0.029959377,-0.164735724,,,,,,
5.440085021,0.068101303,0.004384006,-0.021453263,,,,,,
5.440085021,0.068101303,0.004384006,-0.021453263,,,,,,
5.440546825,0.480931241,0.025146417,-0.133977852,,,,,,
5.440546825,0.480931241,0.025146417,-0.133977852,,,,,,
5.440930178,0.205066988,0.012356077,-0.062088519,,,,,,
5.441084112,0.342676967,0.019268272,-0.099593335,,,,,,
5.443783168,1.896580342,0.025557039,-0.302430923,,,,,,
5.443783168,1.896580342,0.025557039,-0.302430923,,,,,,
5.451638571,2,0.021688755,-0.302367725,,,,,,
5.451758967,1.1055704,0.038422447,-0.248565382,,,,,,
5.451758967,1.1055704,0.038422447,-0.248565382,,,,,,
5.451758967,1.1055704,0.038422447,-0.248565382,,,,,,
5.451758967,1.1055704,0.038422447,-0.248565382,,,,,,
5.451758967,1.1055704,0.038422447,-0.248565382,,,,,,
5.451758967,1.1055704,0.038422447,-0.248565382,,,,,,
5.452273183,1.304915188,0.038308134,-0.271447082,,,,,,
5.456976784,1.641374159,0.033072208,-0.295267453,,,,,,
5.46046796,1.484514945,0.036123541,-0.286218463,,,,,,
5.46046796,1.484514945,0.036123541,-0.286218463,,,,,,
5.46295755,1.73985943,0.030292389,-0.29872962,,,,,,
5.46295755,1.73985943,0.030292389,-0.29872962,,,,,,
5.463220985,0.967666967,0.03693668,-0.228588645,,,,,,
5.467477611,1.844870513,0.026923087,-0.300948592,,,,,,
5.467477611,1.844870513,0.026923087,-0.300948592,,,,,,
5.469839241,1.540352544,0.034899115,-0.289510091,,,,,,
5.474474696,1.176446356,0.037989032,-0.256797442,,,,,,
5.474474696,1.176446356,0.037989032,-0.256797442,,,,,,
5.474683004,0.829763533,0.034483783,-0.205518507,,,,,,
5.474683004,0.829763533,0.034483783,-0.205518507,,,,,,
5.474988911,1.375791143,0.037095776,-0.277268688,,,,,,
5.474988911,1.375791143,0.037095776,-0.277268688,,,,,,
5.475333014,1.948290171,0.023265761,-0.301574509,,,,,,
5.476779806,0.690101725,0.031241938,-0.179146293,,,,,,
5.47826087,0,0,0,,,,,,
5.47826087,0,0,0,,,,,,
5.47826087,0,0,0,,,,,,
5.478876609,0.550439917,0.026981911,-0.149492854,,,,,,
5.478876609,0.550439917,0.026981911,-0.149492854,,,,,,
5.478876609,0.550439917,0.026981911,-0.149492854,,,,,,
5.478876609,0.550439917,0.026981911,-0.149492854,,,,,,
5.478876609,0.550439917,0.026981911,-0.149492854,,,,,,
5.478876609,0.550439917,0.026981911,-0.149492854,,,,,,
5.479106027,0.136965685,0.00830795,-0.042172123,,,,,,
5.479210522,1.596190143,0.033522073,-0.292307892,,,,,,
5.479210522,1.596190143,0.033522073,-0.292307892,,,,,,
5.479413896,0.412185643,0.021775259,-0.116894351,,,,,,
5.479951184,0.273931369,0.015531636,-0.081007208,,,,,,
5.479951184,0.273931369,0.015531636,-0.081007208,,,,,,
5.485191288,1.694675413,0.031013681,-0.296438796,,,,,,
5.491172053,1.793160684,0.028089396,-0.299141909,,,,,,
5.491172053,1.793160684,0.028089396,-0.299141909,,,,,,
5.491172053,1.793160684,0.028089396,-0.299141909,,,,,,
5.491172053,1.793160684,0.028089396,-0.299141909,,,,,,
5.491172053,1.793160684,0.028089396,-0.299141909,,,,,,
5.491172053,1.793160684,0.028089396,-0.299141909,,,,,,
5.497190424,1.247322311,0.037269434,-0.264157303,,,,,,
5.497190424,1.247322311,0.037269434,-0.264157303,,,,,,
5.497377764,1.039535018,0.0367395,-0.238358772,,,,,,
5.497377764,1.039535018,0.0367395,-0.238358772,,,,,,
5.499027456,1.896580342,0.024671691,-0.300486442,,,,,,
5.501544921,1.436794583,0.035644572,-0.281387252,,,,,,
5.501544921,1.436794583,0.035644572,-0.281387252,,,,,,
5.506882859,2,0.021158098,-0.30045781,,,,,,
5.507425026,1.649491397,0.031588159,-0.293884176,,,,,,
5.508839782,0.901631584,0.034855539,-0.217045155,,,,,,
5.510916202,1.492632182,0.034582295,-0.285103384,,,,,,
5.513405791,1.747976667,0.028917296,-0.29723837,,,,,,
5.513405791,1.747976667,0.028917296,-0.29723837,,,,,,
5.515619193,0.762848963,0.03212611,-0.192551663,,,,,,
5.517281876,0.068864381,0.004197005,-0.021562829,,,,,,
5.517281876,0.068864381,0.004197005,-0.021562829,,,,,,
5.517715995,0.623187155,0.028509705,-0.164748246,,,,,,
5.517715995,0.623187155,0.028509705,-0.164748246,,,,,,
5.51774368,0.481694319,0.023862645,-0.133245616,,,,,,
5.51774368,0.481694319,0.023862645,-0.133245616,,,,,,
5.518127033,0.205830066,0.011747612,-0.061924006,,,,,,
5.518280967,0.343440045,0.018296646,-0.099147868,,,,,,
5.519906153,1.318198266,0.036277654,-0.270662205,,,,,,
5.519906153,1.318198266,0.036277654,-0.270662205,,,,,,
5.520287483,1.548469782,0.033372138,-0.288324528,,,,,,
5.522721899,1.844870513,0.025901604,-0.299086405,,,,,,
5.522721899,1.844870513,0.025901604,-0.299086405,,,,,,
5.529658764,1.604307381,0.032024324,-0.291061819,,,,,,
5.529658764,1.604307381,0.032024324,-0.291061819,,,,,,
5.530577302,1.948290171,0.022554416,-0.299750988,,,,,,
5.535639529,1.702792651,0.02960136,-0.295075715,,,,,,
5.535639529,1.702792651,0.02960136,-0.295075715,,,,,,
5.538393043,1.123782045,0.036075999,-0.248615669,,,,,,
5.538393043,1.123782045,0.036075999,-0.248615669,,,,,,
5.542621882,1.389074222,0.035030827,-0.276332145,,,,,,
5.542621882,1.389074222,0.035030827,-0.276332145,,,,,,
5.542621882,1.389074222,0.035030827,-0.276332145,,,,,,
5.542621882,1.389074222,0.035030827,-0.276332145,,,,,,
5.542621882,1.389074222,0.035030827,-0.276332145,,,,,,
5.542621882,1.389074222,0.035030827,-0.276332145,,,,,,
5.542996561,0.973499635,0.034889761,-0.227632028,,,,,,
5.542996561,0.973499635,0.034889761,-0.227632028,,,,,,
5.546696762,1.789306233,0.027058413,-0.297263145,,,,,,
5.546696762,1.789306233,0.027058413,-0.297263145,,,,,,
5.551993163,1.444911821,0.034120549,-0.28047134,,,,,,
5.551993163,1.444911821,0.034120549,-0.28047134,,,,,,
5.554271744,1.896580342,0.023806312,-0.298742285,,,,,,
5.554271744,1.896580342,0.023806312,-0.298742285,,,,,,
5.554347826,0,0,0,,,,,,
5.554458579,0.835596202,0.032632357,-0.204970064,,,,,,
5.554458579,0.835596202,0.032632357,-0.204970064,,,,,,
5.556302882,0.137728763,0.007897395,-0.042153353,,,,,,
5.556302882,0.137728763,0.007897395,-0.042153353,,,,,,
5.556555382,0.695934393,0.029634173,-0.178998783,,,,,,
5.556555382,0.695934393,0.029634173,-0.178998783,,,,,,
5.556610751,0.412948721,0.020633268,-0.116336871,,,,,,
5.556610751,0.412948721,0.020633268,-0.116336871,,,,,,
5.557148039,0.274694447,0.014728783,-0.080722444,,,,,,
5.557148039,0.274694447,0.014728783,-0.080722444,,,,,,
5.557873268,1.657608635,0.030148619,-0.292648851,,,,,,
5.557873268,1.657608635,0.030148619,-0.292648851,,,,,,
5.558015483,0.551596589,0.025526735,-0.148724144,,,,,,
5.558015483,0.551596589,0.025526735,-0.148724144,,,,,,
5.561108772,1.194658,0.035535778,-0.2565874,,,,,,
5.561364444,1.50074942,0.03306638,-0.284114573,,,,,,
5.561364444,1.50074942,0.03306638,-0.284114573,,,,,,
5.562127147,2,0.020615336,-0.2987406,,,,,,
5.5689305,1.744122216,0.027797574,-0.295409656,,,,,,
5.570735725,1.556587019,0.031877574,-0.287271655,,,,,,
5.570735725,1.556587019,0.031877574,-0.287271655,,,,,,
5.578246607,1.841016062,0.025009107,-0.297347669,,,,,,
5.580107006,1.612424618,0.03056587,-0.289953556,,,,,,
5.580107006,1.612424618,0.03056587,-0.289953556,,,,,,
5.580107006,1.612424618,0.03056587,-0.289953556,,,,,,
5.580107006,1.612424618,0.03056587,-0.289953556,,,,,,
5.580107006,1.612424618,0.03056587,-0.289953556,,,,,,
5.5838245,1.265533956,0.034733373,-0.26371071,,,,,,
5.58401184,1.057746662,0.034498541,-0.238850147,,,,,,
5.58582159,1.948290171,0.02184593,-0.29811342,,,,,,
5.58582159,1.948290171,0.02184593,-0.29811342,,,,,,
5.588615358,0.907464253,0.032890417,-0.216369833,,,,,,
5.588615358,0.907464253,0.032890417,-0.216369833,,,,,,
5.591164238,1.6989382,0.028406092,-0.293295446,,,,,,
5.593368832,0.068864381,0.003963744,-0.021447432,,,,,,
5.595323888,0.206593144,0.011128496,-0.06178591,,,,,,
5.595323888,0.206593144,0.011128496,-0.06178591,,,,,,
5.595394768,0.768681632,0.030376542,-0.192262132,,,,,,
5.595394768,0.768681632,0.030376542,-0.192262132,,,,,,
5.595477822,0.344203123,0.017311343,-0.098751653,,,,,,
5.595477822,0.344203123,0.017311343,-0.098751653,,,,,,
5.59685487,0.624343827,0.026909426,-0.163881108,,,,,,
5.596882554,0.482850991,0.022543267,-0.132659645,,,,,,
5.600747242,1.422326527,0.033038802,-0.277403865,,,,,,
5.600747242,1.422326527,0.033038802,-0.277403865,,,,,,
5.60222147,1.785451782,0.026040385,-0.29556841,,,,,,
5.60222147,1.785451782,0.026040385,-0.29556841,,,,,,
5.606540229,1.336409911,0.033686114,-0.270004194,,,,,,
5.606540229,1.336409911,0.033686114,-0.270004194,,,,,,
5.609796453,1.892725891,0.023054626,-0.297135117,,,,,,
5.610118523,1.478164126,0.032072612,-0.281247414,,,,,,
5.613397976,1.653754184,0.028889244,-0.290915521,,,,,,
5.613397976,1.653754184,0.028889244,-0.290915521,,,,,,
5.617371435,2,0.020056617,-0.297196857,,,,,,
5.617371435,2,0.020056617,-0.297196857,,,,,,
5.617371435,2,0.020056617,-0.297196857,,,,,,
5.619489804,1.534001725,0.030979496,-0.284607581,,,,,,
5.624455208,1.740267765,0.02669384,-0.293757323,,,,,,
5.625027119,1.14199369,0.033701502,-0.248837817,,,,,,
5.625027119,1.14199369,0.033701502,-0.248837817,,,,,,
5.628861085,1.589839324,0.029771098,-0.287494456,,,,,,
5.628861085,1.589839324,0.029771098,-0.287494456,,,,,,
5.629630637,0.99171128,0.032761645,-0.228543518,,,,,,
5.630434783,0,0,0,,,,,,
5.632389838,0.137728763,0.007447029,-0.041930853,,,,,,
5.633771316,1.837161611,0.024118545,-0.295781369,,,,,,
5.634234155,0.84142887,0.030758485,-0.204557451,,,,,,
5.634234155,0.84142887,0.030758485,-0.204557451,,,,,,
5.634234155,0.84142887,0.030758485,-0.204557451,,,,,,
5.634234155,0.84142887,0.030758485,-0.204557451,,,,,,
5.634234155,0.84142887,0.030758485,-0.204557451,,,,,,
5.634234155,0.84142887,0.030758485,-0.204557451,,,,,,
5.634344894,0.275457525,0.013915681,-0.080474871,,,,,,
5.634344894,0.275457525,0.013915681,-0.080474871,,,,,,
5.634344894,0.275457525,0.013915681,-0.080474871,,,,,,
5.634344894,0.275457525,0.013915681,-0.080474871,,,,,,
5.634344894,0.275457525,0.013915681,-0.080474871,,,,,,
5.634344894,0.275457525,0.013915681,-0.080474871,,,,,,
5.635694256,0.697091066,0.027904142,-0.178049132,,,,,,
5.635749626,0.414105393,0.019463843,-0.11591996,,,,,,
5.637154358,0.552753261,0.024057075,-0.148045623,,,,,,
5.637154358,0.552753261,0.024057075,-0.148045623,,,,,,
5.641346298,1.94443572,0.021230905,-0.296626968,,,,,,
5.641346298,1.94443572,0.021230905,-0.296626968,,,,,,
5.646688946,1.695083749,0.027228818,-0.291683731,,,,,,
5.646688946,1.695083749,0.027228818,-0.291683731,,,,,,
5.647742848,1.212869645,0.033075344,-0.256575453,,,,,,
5.657746178,1.78159733,0.025031288,-0.294039139,,,,,,
5.657746178,1.78159733,0.025031288,-0.294039139,,,,,,
5.658872603,1.455578831,0.031050638,-0.278431517,,,,,,
5.658872603,1.455578831,0.031050638,-0.278431517,,,,,,
5.662152055,1.631168889,0.028173814,-0.288675535,,,,,,
5.664665589,1.369662216,0.031796374,-0.271531944,,,,,,
5.665321161,1.88887144,0.02229182,-0.295689048,,,,,,
5.665321161,1.88887144,0.02229182,-0.295689048,,,,,,
5.668243884,1.511416431,0.030047509,-0.281993815,,,,,,
5.669455789,0.068864381,0.003729543,-0.021340684,,,,,,
5.670458576,1.283745601,0.032212808,-0.263487055,,,,,,
5.670458576,1.283745601,0.032212808,-0.263487055,,,,,,
5.670645916,1.075958307,0.03222561,-0.239484596,,,,,,
5.671410844,0.206593144,0.01047652,-0.061465452,,,,,,
5.671410844,0.206593144,0.01047652,-0.061465452,,,,,,
5.674533643,0.769838304,0.028533108,-0.191246655,,,,,,
5.674533643,0.769838304,0.028533108,-0.191246655,,,,,,
5.674616697,0.345359795,0.016306558,-0.098490979,,,,,,
5.674616697,0.345359795,0.016306558,-0.098490979,,,,,,
5.675249434,0.925675897,0.03088274,-0.217682306,,,,,,
5.675249434,0.925675897,0.03088274,-0.217682306,,,,,,
5.675993744,0.6255005,0.025299083,-0.163117674,,,,,,
5.676021429,0.484007663,0.021212452,-0.13214874,,,,,,
5.676797923,2,0.019435093,-0.295710455,,,,,,
5.677615165,1.56725403,0.02893569,-0.285084292,,,,,,
5.677615165,1.56725403,0.02893569,-0.285084292,,,,,,
5.679979917,1.736413314,0.025602728,-0.292263759,,,,,,
5.679979917,1.736413314,0.025602728,-0.292263759,,,,,,
5.689296024,1.833307159,0.023226659,-0.29437018,,,,,,
5.689296024,1.833307159,0.023226659,-0.29437018,,,,,,
5.695443026,1.672498454,0.026590707,-0.289657914,,,,,,
5.700772786,1.94443572,0.020449189,-0.295214758,,,,,,
5.706521739,0,0,0,,,,,,
5.708476795,0.137728763,0.006995619,-0.041726121,,,,,,
5.708476795,0.137728763,0.006995619,-0.041726121,,,,,,
5.710906135,1.608583595,0.027412392,-0.286477492,,,,,,
5.711661195,1.160205335,0.031320242,-0.249229332,,,,,,
5.711661195,1.160205335,0.031320242,-0.249229332,,,,,,
5.712087996,0.275289261,0.013051917,-0.080012974,,,,,,
5.712087996,0.275289261,0.013051917,-0.080012974,,,,,,
5.713270887,1.777742879,0.024027853,-0.292658803,,,,,,
5.713270887,1.777742879,0.024027853,-0.292658803,,,,,,
5.713270887,1.777742879,0.024027853,-0.292658803,,,,,,
5.713270887,1.777742879,0.024027853,-0.292658803,,,,,,
5.713270887,1.777742879,0.024027853,-0.292658803,,,,,,
5.713270887,1.777742879,0.024027853,-0.292658803,,,,,,
5.714833131,0.698247738,0.026169403,-0.177216181,,,,,,
5.714833131,0.698247738,0.026169403,-0.177216181,,,,,,
5.7148885,0.415262065,0.018285578,-0.115564065,,,,,,
5.7148885,0.415262065,0.018285578,-0.115564065,,,,,,
5.716264713,1.009922925,0.030597546,-0.229571953,,,,,,
5.716264713,1.009922925,0.030597546,-0.229571953,,,,,,
5.716293232,0.553909934,0.022579821,-0.147454273,,,,,,
5.716293232,0.553909934,0.022579821,-0.147454273,,,,,,
5.716997963,1.488831136,0.029084448,-0.279419566,,,,,,
5.716997963,1.488831136,0.029084448,-0.279419566,,,,,,
5.717133297,0.841298537,0.028707137,-0.20321825,,,,,,
5.717133297,0.841298537,0.028707137,-0.20321825,,,,,,
5.72279095,1.402914521,0.029904631,-0.272999341,,,,,,
5.724747648,1.88887144,0.021368755,-0.294343898,,,,,,
5.726369244,1.544668735,0.028062911,-0.282712364,,,,,,
5.726369244,1.544668735,0.028062911,-0.282712364,,,,,,
5.728583937,1.316997905,0.030421652,-0.265449635,,,,,,
5.728733996,1.71382802,0.02503803,-0.290446315,,,,,,
5.728733996,1.71382802,0.02503803,-0.290446315,,,,,,
5.734376924,1.23108129,0.030628498,-0.256754368,,,,,,
5.734376924,1.23108129,0.030628498,-0.256754368,,,,,,
5.73622441,2,0.018789965,-0.294386824,,,,,,
5.744197105,1.64991316,0.025901184,-0.287667412,,,,,,
5.744197105,1.64991316,0.025901184,-0.287667412,,,,,,
5.745542745,0.068864381,0.003495385,-0.021242403,,,,,,
5.745542745,0.068864381,0.003495385,-0.021242403,,,,,,
5.748722511,1.833307159,0.022180506,-0.293087059,,,,,,
5.748722511,1.833307159,0.022180506,-0.293087059,,,,,,
5.749153946,0.20642488,0.009802691,-0.061119267,,,,,,
5.752359799,0.345191531,0.0152654,-0.097951201,,,,,,
5.755132619,0.626657172,0.023685724,-0.162453614,,,,,,
5.755132619,0.626657172,0.023685724,-0.162453614,,,,,,
5.755160303,0.485164336,0.019876104,-0.131710299,,,,,,
5.755160303,0.485164336,0.019876104,-0.131710299,,,,,,
5.757279992,1.094169952,0.029939701,-0.240260044,,,,,,
5.757279992,1.094169952,0.029939701,-0.240260044,,,,,,
5.757432785,0.769707971,0.026580357,-0.190077759,,,,,,
5.758148576,0.925545565,0.028744512,-0.216318398,,,,,,
5.759660214,1.585998301,0.026608777,-0.284311371,,,,,,
5.759660214,1.585998301,0.026608777,-0.284311371,,,,,,
5.760199273,1.94443572,0.019657846,-0.293959195,,,,,,
5.775123323,1.522083441,0.027155888,-0.280368896,,,,,,
5.775123323,1.522083441,0.027155888,-0.280368896,,,,,,
5.775123323,1.522083441,0.027155888,-0.280368896,,,,,,
5.775123323,1.522083441,0.027155888,-0.280368896,,,,,,
5.775123323,1.522083441,0.027155888,-0.280368896,,,,,,
5.775123323,1.522083441,0.027155888,-0.280368896,,,,,,
5.775137576,1.76800951,0.02301971,-0.291137037,,,,,,
5.775137576,1.76800951,0.02301971,-0.291137037,,,,,,
5.78091631,1.436166826,0.028026836,-0.274410071,,,,,,
5.78091631,1.436166826,0.028026836,-0.274410071,,,,,,
5.782608696,0,0,0,,,,,,
5.782608696,0,0,0,,,,,,
5.782608696,0,0,0,,,,,,
5.784174136,1.88887144,0.020447031,-0.293149894,,,,,,
5.784174136,1.88887144,0.020447031,-0.293149894,,,,,,
5.786219897,0.137560499,0.00652766,-0.04148606,,,,,,
5.786709297,1.35025021,0.028622854,-0.267337356,,,,,,
5.786709297,1.35025021,0.028622854,-0.267337356,,,,,,
5.789831098,0.275120997,0.012189975,-0.079589574,,,,,,
5.789831098,0.275120997,0.012189975,-0.079589574,,,,,,
5.790600686,1.70409465,0.023904029,-0.288874217,,,,,,
5.792502284,1.264333595,0.028932733,-0.25913317,,,,,,
5.792502284,1.264333595,0.028932733,-0.25913317,,,,,,
5.792631602,0.415093802,0.017082419,-0.114957903,,,,,,
5.795432106,0.555066606,0.021101032,-0.146946311,,,,,,
5.795432106,0.555066606,0.021101032,-0.146946311,,,,,,
5.795432106,0.555066606,0.021101032,-0.146946311,,,,,,
5.795432106,0.555066606,0.021101032,-0.146946311,,,,,,
5.795432106,0.555066606,0.021101032,-0.146946311,,,,,,
5.795432106,0.555066606,0.021101032,-0.146946311,,,,,,
5.795650897,2,0.018119724,-0.293209358,,,,,,
5.797732273,0.698117405,0.024328256,-0.176203966,,,,,,
5.798295271,1.178416979,0.028949921,-0.249782392,,,,,,
5.798295271,1.178416979,0.028949921,-0.249782392,,,,,,
5.798295271,1.178416979,0.028949921,-0.249782392,,,,,,
5.798295271,1.178416979,0.028949921,-0.249782392,,,,,,
5.798295271,1.178416979,0.028949921,-0.249782392,,,,,,
5.798295271,1.178416979,0.028949921,-0.249782392,,,,,,
5.798295271,1.178416979,0.028949921,-0.249782392,,,,,,
5.799163855,1.009792592,0.028399197,-0.228206028,,,,,,
5.800032439,0.841168205,0.026668304,-0.202035348,,,,,,
5.800032439,0.841168205,0.026668304,-0.202035348,,,,,,
5.806063795,1.640179791,0.024657063,-0.286043524,,,,,,
5.810589201,1.82357379,0.021287103,-0.291729962,,,,,,
5.81962576,1.94443572,0.018854264,-0.292844254,,,,,,
5.81962576,1.94443572,0.018854264,-0.292844254,,,,,,
5.821526904,1.576264931,0.025269631,-0.282635388,,,,,,
5.821526904,1.576264931,0.025269631,-0.282635388,,,,,,
5.823285847,0.068696117,0.003249398,-0.021099844,,,,,,
5.823285847,0.068696117,0.003249398,-0.021099844,,,,,,
5.826897048,0.206256616,0.0091319,-0.060800744,,,,,,
5.830102901,0.345023268,0.014227988,-0.097459614,,,,,,
5.832903405,0.484996072,0.0185264,-0.131049595,,,,,,
5.832903405,0.484996072,0.0185264,-0.131049595,,,,,,
5.837004266,1.75827614,0.021991994,-0.289752807,,,,,,
5.837004266,1.75827614,0.021991994,-0.289752807,,,,,,
5.838031761,0.626526839,0.021969593,-0.16158524,,,,,,
5.838031761,0.626526839,0.021969593,-0.16158524,,,,,,
5.840179134,1.094039619,0.027709582,-0.238914194,,,,,,
5.840179134,1.094039619,0.027709582,-0.238914194,,,,,,
5.840331927,0.769577639,0.024640581,-0.18904474,,,,,,
5.841047718,0.925415232,0.026626749,-0.215122585,,,,,,
5.845272284,1.500600946,0.02567016,-0.277751203,,,,,,
5.845272284,1.500600946,0.02567016,-0.277751203,,,,,,
5.846040825,1.87913807,0.019660725,-0.291948324,,,,,,
5.851065271,1.414684331,0.026406898,-0.271543889,,,,,,
5.852467375,1.694361281,0.02276033,-0.28743562,,,,,,
5.855077384,2,0.01742352,-0.292163322,,,,,,
5.855077384,2,0.01742352,-0.292163322,,,,,,
5.855077384,2,0.01742352,-0.292163322,,,,,,
5.856858258,1.328767715,0.026890997,-0.264226161,,,,,,
5.858695652,0,0,0,,,,,,
5.862651245,1.2428511,0.027110475,-0.25578126,,,,,,
5.862651245,1.2428511,0.027110475,-0.25578126,,,,,,
5.863962999,0.137392235,0.006063121,-0.041263733,,,,,,
5.863962999,0.137392235,0.006063121,-0.041263733,,,,,,
5.8675742,0.274952734,0.011332816,-0.079202914,,,,,,
5.8675742,0.274952734,0.011332816,-0.079202914,,,,,,
5.867930484,1.630446421,0.02341104,-0.284548971,,,,,,
5.867930484,1.630446421,0.02341104,-0.284548971,,,,,,
5.870374704,0.414925538,0.01588547,-0.114409305,,,,,,
5.870374704,0.414925538,0.01588547,-0.114409305,,,,,,
5.87245589,1.81384042,0.020362963,-0.290500773,,,,,,
5.875077584,0.5531425,0.019541986,-0.145848813,,,,,,
5.875077584,0.5531425,0.019541986,-0.145848813,,,,,,
5.880631415,0.697987073,0.022500528,-0.175308903,,,,,,
5.880631415,0.697987073,0.022500528,-0.175308903,,,,,,
5.881492449,1.93470235,0.018163656,-0.291788806,,,,,,
5.881492449,1.93470235,0.018163656,-0.291788806,,,,,,
5.882062997,1.009662259,0.026229261,-0.227017557,,,,,,
5.882062997,1.009662259,0.026229261,-0.227017557,,,,,,
5.882931581,0.841037872,0.024648799,-0.200997008,,,,,,
5.882931581,0.841037872,0.024648799,-0.200997008,,,,,,
5.889410535,1.162237077,0.026500459,-0.246512972,,,,,,
5.889410535,1.162237077,0.026500459,-0.246512972,,,,,,
5.891675865,1.554782436,0.023887532,-0.280300495,,,,,,
5.898870955,1.748542771,0.020945017,-0.288490024,,,,,,
5.898870955,1.748542771,0.020945017,-0.288490024,,,,,,
5.899372804,0.068696117,0.003018442,-0.021018081,,,,,,
5.904640151,0.206088352,0.008466285,-0.060508627,,,,,,
5.904640151,0.206088352,0.008466285,-0.060508627,,,,,,
5.907846003,0.344855004,0.013197545,-0.097013737,,,,,,
5.907846003,0.344855004,0.013197545,-0.097013737,,,,,,
5.907907515,1.8694047,0.018832739,-0.290866041,,,,,,
5.907907515,1.8694047,0.018832739,-0.290866041,,,,,,
5.912548883,0.483071966,0.017107574,-0.130043581,,,,,,
5.914334065,1.684627911,0.021606627,-0.286114824,,,,,,
5.914334065,1.684627911,0.021606627,-0.286114824,,,,,,
5.915421245,1.479118451,0.024165663,-0.275236584,,,,,,
5.915421245,1.479118451,0.024165663,-0.275236584,,,,,,
5.917677238,0.624602734,0.02029712,-0.160479617,,,,,,
5.919002679,2,0.016645454,-0.291169699,,,,,,
5.921214232,1.393201835,0.024779566,-0.268776818,,,,,,
5.923231069,0.769447306,0.022719719,-0.188137381,,,,,,
5.923231069,0.769447306,0.022719719,-0.188137381,,,,,,
5.92394686,0.925284899,0.024535191,-0.214080668,,,,,,
5.92394686,0.925284899,0.024535191,-0.214080668,,,,,,
5.927007219,1.30728522,0.025161151,-0.261209248,,,,,,
5.927007219,1.30728522,0.025161151,-0.261209248,,,,,,
5.931294398,1.077859717,0.025254317,-0.235591905,,,,,,
5.93432258,1.804107051,0.019409729,-0.289384566,,,,,,
5.93432258,1.804107051,0.019409729,-0.289384566,,,,,,
5.934782609,0,0,0,,,,,,
5.938079445,1.608963926,0.022130039,-0.282488631,,,,,,
5.940049955,0.137392235,0.005619442,-0.041109782,,,,,,
5.945317302,0.27478447,0.01048291,-0.078851071,,,,,,
5.945317302,0.27478447,0.01048291,-0.078851071,,,,,,
5.945317302,0.27478447,0.01048291,-0.078851071,,,,,,
5.945317302,0.27478447,0.01048291,-0.078851071,,,,,,
5.945317302,0.27478447,0.01048291,-0.078851071,,,,,,
5.945317302,0.27478447,0.01048291,-0.078851071,,,,,,
5.945417744,1.93470235,0.017247354,-0.290857686,,,,,,
5.950020182,0.413001432,0.01462067,-0.113485419,,,,,,
5.953766509,1.226671197,0.024737032,-0.252809441,,,,,,
5.954723062,0.551218394,0.018002379,-0.144832211,,,,,,
5.954723062,0.551218394,0.018002379,-0.144832211,,,,,,
5.960276892,0.696062967,0.020731698,-0.174207724,,,,,,
5.960737645,1.738809401,0.01987937,-0.287334277,,,,,,
5.960737645,1.738809401,0.01987937,-0.287334277,,,,,,
5.960737645,1.738809401,0.01987937,-0.287334277,,,,,,
5.960737645,1.738809401,0.01987937,-0.287334277,,,,,,
5.960737645,1.738809401,0.01987937,-0.287334277,,,,,,
5.960737645,1.738809401,0.01987937,-0.287334277,,,,,,
5.961824825,1.533299941,0.02247786,-0.278055645,,,,,,
5.965830723,0.84090754,0.022653743,-0.200091117,,,,,,
5.965830723,0.84090754,0.022653743,-0.200091117,,,,,,
5.965830723,0.84090754,0.022653743,-0.200091117,,,,,,
5.965830723,0.84090754,0.022653743,-0.200091117,,,,,,
5.965830723,0.84090754,0.022653743,-0.200091117,,,,,,
5.965830723,0.84090754,0.022653743,-0.200091117,,,,,,
5.971832809,1.8694047,0.017791699,-0.289990029,,,,,,
5.973178261,0.993482357,0.023792243,-0.22363135,,,,,,
5.97545976,0.068696117,0.00278979,-0.020943868,,,,,,
5.980525799,1.146057175,0.024095377,-0.243441086,,,,,,
5.980525799,1.146057175,0.024095377,-0.243441086,,,,,,
5.980727107,0.206088352,0.007827219,-0.060292135,,,,,,
5.980727107,0.206088352,0.007827219,-0.060292135,,,,,,
5.982927973,2,0.015837195,-0.290298305,,,,,,
5.984483025,1.663145416,0.02042103,-0.284319602,,,,,,
5.984483025,1.663145416,0.02042103,-0.284319602,,,,,,
5.985570206,1.457635956,0.022644907,-0.27280436,,,,,,
5.985570206,1.457635956,0.022644907,-0.27280436,,,,,,
5.987491481,0.342930898,0.01210083,-0.096163215,,,,,,
5.987491481,0.342930898,0.01210083,-0.096163215,,,,,,
5.991363192,1.37171934,0.02314697,-0.266088773,,,,,,
5.991363192,1.37171934,0.02314697,-0.266088773,,,,,,
5.992194361,0.48114786,0.015708896,-0.129105356,,,,,,
5.997322716,0.622678628,0.018647125,-0.159462051,,,,,,
5.998247874,1.804107051,0.018257969,-0.288558036,,,,,,
5.998247874,1.804107051,0.018257969,-0.288558036,,,,,,
6.002876547,0.7675232,0.020871898,-0.187052749,,,,,,
6.002876547,0.7675232,0.020871898,-0.187052749,,,,,,
6.008228406,1.587481431,0.020812414,-0.280505925,,,,,,
6.008228406,1.587481431,0.020812414,-0.280505925,,,,,,
6.009343038,1.93470235,0.01631403,-0.290043151,,,,,,
6.010869565,0,0,0,,,,,,
6.015062124,0.909104997,0.022140053,-0.210619343,,,,,,
6.015062124,0.909104997,0.022140053,-0.210619343,,,,,,
6.016136912,0.137392235,0.005180427,-0.040970899,,,,,,
6.016136912,0.137392235,0.005180427,-0.040970899,,,,,,
6.018122483,1.291105318,0.022877318,-0.258534255,,,,,,
6.022409662,1.061679815,0.022848419,-0.232441946,,,,,,
6.023625037,0.273791983,0.009611115,-0.078314321,,,,,,
6.023625037,0.273791983,0.009611115,-0.078314321,,,,,,
6.02966566,0.411077326,0.013376466,-0.112617285,,,,,,
6.02966566,0.411077326,0.013376466,-0.112617285,,,,,,
6.031973786,1.511817446,0.021043839,-0.275881659,,,,,,
6.031973786,1.511817446,0.021043839,-0.275881659,,,,,,
6.034172016,1.728317128,0.018578104,-0.286117684,,,,,,
6.034172016,1.728317128,0.018578104,-0.286117684,,,,,,
6.034368539,0.549294288,0.01648539,-0.143890088,,,,,,
6.034368539,0.549294288,0.01648539,-0.143890088,,,,,,
6.035758104,1.8694047,0.016744482,-0.28922559,,,,,,
6.035758104,1.8694047,0.016744482,-0.28922559,,,,,,
6.03992237,0.694138861,0.018988428,-0.173200597,,,,,,
6.03992237,0.694138861,0.018988428,-0.173200597,,,,,,
6.044881773,1.210491295,0.022403926,-0.250019,,,,,,
6.046853268,2,0.014999262,-0.289535907,,,,,,
6.04695373,0.833071344,0.020647221,-0.198032655,,,,,,
6.04695373,0.833071344,0.020647221,-0.198032655,,,,,,
6.051546717,0.068696117,0.002563917,-0.020876884,,,,,,
6.051546717,0.068696117,0.002563917,-0.020876884,,,,,,
6.055719166,1.436153461,0.021110326,-0.270436188,,,,,,
6.055719166,1.436153461,0.021110326,-0.270436188,,,,,,
6.055719166,1.436153461,0.021110326,-0.270436188,,,,,,
6.055719166,1.436153461,0.021110326,-0.270436188,,,,,,
6.055719166,1.436153461,0.021110326,-0.270436188,,,,,,
6.055719166,1.436153461,0.021110326,-0.270436188,,,,,,
6.057917396,1.652653143,0.018996785,-0.283033569,,,,,,
6.059034842,0.205095866,0.007145541,-0.059821241,,,,,,
6.064293526,0.977302455,0.0214097,-0.220393822,,,,,,
6.064293526,0.977302455,0.0214097,-0.220393822,,,,,,
6.065799216,0.341938411,0.011066853,-0.095595214,,,,,,
6.071641064,1.129877273,0.02173601,-0.240533498,,,,,,
6.071641064,1.129877273,0.02173601,-0.240533498,,,,,,
6.071682245,1.793614777,0.017064352,-0.287507408,,,,,,
6.071839838,0.479223754,0.014332931,-0.12822954,,,,,,
6.071839838,0.479223754,0.014332931,-0.12822954,,,,,,
6.073268333,1.93470235,0.01536312,-0.289332445,,,,,,
6.073268333,1.93470235,0.01536312,-0.289332445,,,,,,
6.076968193,0.620754522,0.017022342,-0.158525048,,,,,,
6.076968193,0.620754522,0.017022342,-0.158525048,,,,,,
6.081662776,1.576989158,0.019281668,-0.279146987,,,,,,
6.082478457,1.355539438,0.020962242,-0.263705381,,,,,,
6.082478457,1.355539438,0.020962242,-0.263705381,,,,,,
6.083999553,0.759687005,0.018945765,-0.184997686,,,,,,
6.086956522,0,0,0,,,,,,
6.086956522,0,0,0,,,,,,
6.086956522,0,0,0,,,,,,
6.094444647,0.136399748,0.004702133,-0.040559868,,,,,,
6.096185131,0.901268802,0.020110349,-0.208676241,,,,,,
6.101932772,0.272799496,0.008754447,-0.077809996,,,,,,
6.101932772,0.272799496,0.008754447,-0.077809996,,,,,,
6.105408157,1.501325172,0.01942314,-0.274447626,,,,,,
6.105408157,1.501325172,0.01942314,-0.274447626,,,,,,
6.107606387,1.717824854,0.017256608,-0.285017905,,,,,,
6.107606387,1.717824854,0.017256608,-0.285017905,,,,,,
6.107973394,0.410084839,0.012196203,-0.112027517,,,,,,
6.109192474,1.858912427,0.015648918,-0.288332673,,,,,,
6.109237747,1.274925416,0.02062705,-0.256022577,,,,,,
6.109237747,1.274925416,0.02062705,-0.256022577,,,,,,
6.110778562,2,0.014132531,-0.288870704,,,,,,
6.110778562,2,0.014132531,-0.288870704,,,,,,
6.110778562,2,0.014132531,-0.288870704,,,,,,
6.113524927,1.045499913,0.020493483,-0.229434692,,,,,,
6.113524927,1.045499913,0.020493483,-0.229434692,,,,,,
6.114014017,0.547370183,0.01499327,-0.143016118,,,,,,
6.114014017,0.547370183,0.01499327,-0.143016118,,,,,,
6.114014017,0.547370183,0.01499327,-0.143016118,,,,,,
6.114014017,0.547370183,0.01499327,-0.143016118,,,,,,
6.114014017,0.547370183,0.01499327,-0.143016118,,,,,,
6.114014017,0.547370183,0.01499327,-0.143016118,,,,,,
6.121045377,0.686302666,0.017157783,-0.171141799,,,,,,
6.128076737,0.825235149,0.018683192,-0.196076706,,,,,,
6.128076737,0.825235149,0.018683192,-0.196076706,,,,,,
6.129854452,0.067703631,0.002301954,-0.0205204,,,,,,
6.129854452,0.067703631,0.002301954,-0.0205204,,,,,,
6.131351767,1.642160869,0.017563628,-0.281858516,,,,,,
6.135997038,1.194311393,0.02011098,-0.247377609,,,,,,
6.135997038,1.194311393,0.02011098,-0.247377609,,,,,,
6.137342577,0.204103379,0.00647786,-0.059374047,,,,,,
6.137531823,1.418877957,0.019258718,-0.268333947,,,,,,
6.137531823,1.418877957,0.019258718,-0.268333947,,,,,,
6.14410695,0.340945925,0.010050092,-0.0950661,,,,,,
6.145116616,1.783122504,0.015839221,-0.286564863,,,,,,
6.145416532,0.96946626,0.019371858,-0.218573402,,,,,,
6.146702704,1.924210077,0.01435241,-0.288589025,,,,,,
6.146702704,1.924210077,0.01435241,-0.288589025,,,,,,
6.150147573,0.478231268,0.013022036,-0.127627149,,,,,,
6.150147573,0.478231268,0.013022036,-0.127627149,,,,,,
6.155097147,1.566496884,0.017751222,-0.277893409,,,,,,
6.155097147,1.566496884,0.017751222,-0.277893409,,,,,,
6.1580912,0.612918327,0.015302479,-0.156455503,,,,,,
6.1580912,0.612918327,0.015302479,-0.156455503,,,,,,
6.162756328,1.113697371,0.019422591,-0.237760728,,,,,,
6.162756328,1.113697371,0.019422591,-0.237760728,,,,,,
6.162756328,1.113697371,0.019422591,-0.237760728,,,,,,
6.162756328,1.113697371,0.019422591,-0.237760728,,,,,,
6.162756328,1.113697371,0.019422591,-0.237760728,,,,,,
6.162756328,1.113697371,0.019422591,-0.237760728,,,,,,
6.163043478,0,0,0,,,,,,
6.164291113,1.338263934,0.019033309,-0.261446548,,,,,,
6.16512256,0.75185081,0.017063356,-0.183031854,,,,,,
6.172752381,0.135407261,0.004236088,-0.040164515,,,,,,
6.172752381,0.135407261,0.004236088,-0.040164515,,,,,,
6.177308138,0.893432607,0.018122846,-0.206834812,,,,,,
6.179543241,2,0.013169512,-0.288251501,,,,,,
6.180240506,0.27180701,0.007913883,-0.07733573,,,,,,
6.180240506,0.27180701,0.007913883,-0.07733573,,,,,,
6.181040757,1.707332581,0.015916073,-0.284017928,,,,,,
6.181040757,1.707332581,0.015916073,-0.284017928,,,,,,
6.182626845,1.848420154,0.014511227,-0.287540152,,,,,,
6.182626845,1.848420154,0.014511227,-0.287540152,,,,,,
6.186281129,0.409092353,0.011035183,-0.111482461,,,,,,
6.186281129,0.409092353,0.011035183,-0.111482461,,,,,,
6.187220813,1.484049669,0.017665446,-0.272594423,,,,,,
6.191050404,1.257649912,0.018640573,-0.253605265,,,,,,
6.192665364,0.543789853,0.013516726,-0.141854083,,,,,,
6.192665364,0.543789853,0.013516726,-0.141854083,,,,,,
6.194647933,1.037663718,0.018461789,-0.22774251,,,,,,
6.194647933,1.037663718,0.018461789,-0.22774251,,,,,,
6.202168384,0.67846647,0.015372171,-0.16915988,,,,,,
6.202168384,0.67846647,0.015372171,-0.16915988,,,,,,
6.204786138,1.631668596,0.01612175,-0.280778095,,,,,,
6.204786138,1.631668596,0.01612175,-0.280778095,,,,,,
6.205941408,0.067703631,0.002085746,-0.020467743,,,,,,
6.209199743,0.817398954,0.016762341,-0.194210456,,,,,,
6.209199743,0.817398954,0.016762341,-0.194210456,,,,,,
6.215467382,1.924210077,0.013274091,-0.288029,,,,,,
6.215650311,0.203110892,0.005824735,-0.058948853,,,,,,
6.215650311,0.203110892,0.005824735,-0.058948853,,,,,,
6.217809694,1.177035889,0.018086552,-0.244800113,,,,,,
6.217809694,1.177035889,0.018086552,-0.244800113,,,,,,
6.218550987,1.772630231,0.014585242,-0.285714566,,,,,,
6.218550987,1.772630231,0.014585242,-0.285714566,,,,,,
6.21934448,1.401602453,0.017412571,-0.266322533,,,,,,
6.21934448,1.401602453,0.017412571,-0.266322533,,,,,,
6.222414685,0.339953438,0.009051409,-0.094572885,,,,,,
6.222414685,0.339953438,0.009051409,-0.094572885,,,,,,
6.226539539,0.961630064,0.017375055,-0.216852332,,,,,,
6.226539539,0.961630064,0.017375055,-0.216852332,,,,,,
6.22879892,0.474650938,0.011679592,-0.126489731,,,,,,
6.236742547,0.609337997,0.013737323,-0.155328945,,,,,,
6.236909804,1.54922138,0.016086507,-0.27628223,,,,,,
6.239130435,0,0,0,,,,,,
6.242921977,1.097796236,0.017422107,-0.235204154,,,,,,
6.242921977,1.097796236,0.017422107,-0.235204154,,,,,,
6.24610377,1.32098843,0.017118473,-0.259270614,,,,,,
6.246245567,0.744014614,0.015225177,-0.181144022,,,,,,
6.246245567,0.744014614,0.015225177,-0.181144022,,,,,,
6.248307919,2,0.012176312,-0.287720883,,,,,,
6.248839338,0.135407261,0.003820863,-0.040068192,,,,,,
6.251391524,1.848420154,0.013328089,-0.287030883,,,,,,
6.254475128,1.696840308,0.014557783,-0.283102767,,,,,,
6.254475128,1.696840308,0.014557783,-0.283102767,,,,,,
6.254475128,1.696840308,0.014557783,-0.283102767,,,,,,
6.254475128,1.696840308,0.014557783,-0.283102767,,,,,,
6.254475128,1.696840308,0.014557783,-0.283102767,,,,,,
6.254475128,1.696840308,0.014557783,-0.283102767,,,,,,
6.258431145,0.885596411,0.016177333,-0.205081798,,,,,,
6.258431145,0.885596411,0.016177333,-0.205081798,,,,,,
6.258548241,0.270814523,0.007089932,-0.076889243,,,,,,
6.258548241,0.270814523,0.007089932,-0.076889243,,,,,,
6.258548241,0.270814523,0.007089932,-0.076889243,,,,,,
6.258548241,0.270814523,0.007089932,-0.076889243,,,,,,
6.258548241,0.270814523,0.007089932,-0.076889243,,,,,,
6.258548241,0.270814523,0.007089932,-0.076889243,,,,,,
6.264932476,0.405512023,0.009839681,-0.110364301,,,,,,
6.26903347,1.466774165,0.015903566,-0.270820718,,,,,,
6.27131671,0.540209524,0.012072018,-0.14074717,,,,,,
6.27131671,0.540209524,0.012072018,-0.14074717,,,,,,
6.27286306,1.240374408,0.016675756,-0.251262917,,,,,,
6.27286306,1.240374408,0.016675756,-0.251262917,,,,,,
6.274813583,1.021762583,0.016466692,-0.225054583,,,,,,
6.28081973,0.674886141,0.013732003,-0.168075544,,,,,,
6.282028365,0.067703631,0.00187296,-0.020421136,,,,,,
6.284232061,1.924210077,0.012177657,-0.28755125,,,,,,
6.286598794,1.614393092,0.014546061,-0.279401028,,,,,,
6.286598794,1.614393092,0.014546061,-0.279401028,,,,,,
6.287315665,1.772630231,0.013308673,-0.285249449,,,,,,
6.287315665,1.772630231,0.013308673,-0.285249449,,,,,,
6.29032275,0.809562758,0.014884481,-0.192422236,,,,,,
6.29032275,0.809562758,0.014884481,-0.192422236,,,,,,
6.29032275,0.809562758,0.014884481,-0.192422236,,,,,,
6.29032275,0.809562758,0.014884481,-0.192422236,,,,,,
6.29032275,0.809562758,0.014884481,-0.192422236,,,,,,
6.29032275,0.809562758,0.014884481,-0.192422236,,,,,,
6.291737268,0.203110892,0.005226836,-0.058817357,,,,,,
6.291737268,0.203110892,0.005226836,-0.058817357,,,,,,
6.297975344,1.161134755,0.01613054,-0.242457847,,,,,,
6.301066032,0.336373108,0.008015651,-0.093468901,,,,,,
6.301066032,0.336373108,0.008015651,-0.093468901,,,,,,
6.301157136,1.384326949,0.015571907,-0.26438261,,,,,,
6.301157136,1.384326949,0.015571907,-0.26438261,,,,,,
6.306705189,0.94572893,0.015402416,-0.214029798,,,,,,
6.307450266,0.471070609,0.010368586,-0.125398777,,,,,,
6.315217391,0,0,0,,,,,,
6.315393894,0.605757668,0.012204411,-0.154260117,,,,,,
6.317072598,2,0.011154886,-0.287268383,,,,,,
6.318722461,1.531945877,0.014407927,-0.27473977,,,,,,
6.318722461,1.531945877,0.014407927,-0.27473977,,,,,,
6.320156202,1.848420154,0.012136737,-0.286598414,,,,,,
6.320156202,1.848420154,0.012136737,-0.286598414,,,,,,
6.323087627,1.081895102,0.015455266,-0.232709337,,,,,,
6.323087627,1.081895102,0.015455266,-0.232709337,,,,,,
6.324896914,0.740434285,0.013523311,-0.180107862,,,,,,
6.324896914,0.740434285,0.013523311,-0.180107862,,,,,,
6.324926294,0.135407261,0.00341199,-0.039983611,,,,,,
6.324926294,0.135407261,0.00341199,-0.039983611,,,,,,
6.327916427,1.303712927,0.01521739,-0.257159437,,,,,,
6.327916427,1.303712927,0.01521739,-0.257159437,,,,,,
6.338596794,0.869695277,0.014244314,-0.202121191,,,,,,
6.338596794,0.869695277,0.014244314,-0.202121191,,,,,,
6.340187144,0.270539123,0.006264049,-0.07664828,,,,,,
6.340187144,0.270539123,0.006264049,-0.07664828,,,,,,
6.343583822,0.401931694,0.00867507,-0.109284607,,,,,,
6.343583822,0.401931694,0.00867507,-0.109284607,,,,,,
6.348558321,1.682390057,0.012800614,-0.281994624,,,,,,
6.348558321,1.682390057,0.012800614,-0.281994624,,,,,,
6.349968057,0.536629195,0.010659005,-0.13968977,,,,,,
6.349968057,0.536629195,0.010659005,-0.13968977,,,,,,
6.350846127,1.449498661,0.01413816,-0.26910868,,,,,,
6.350846127,1.449498661,0.01413816,-0.26910868,,,,,,
6.352996739,1.924210077,0.011063942,-0.287145908,,,,,,
6.352996739,1.924210077,0.011063942,-0.287145908,,,,,,
6.35302871,1.224473274,0.01476976,-0.249132519,,,,,,
6.354979233,1.005861449,0.014509994,-0.222420085,,,,,,
6.358115321,0.067703631,0.00166359,-0.020380268,,,,,,
6.358115321,0.067703631,0.00166359,-0.020380268,,,,,,
6.359471077,0.671305812,0.012124135,-0.167050679,,,,,,
6.359471077,0.671305812,0.012124135,-0.167050679,,,,,,
6.364554554,0.800216917,0.013186558,-0.190472781,,,,,,
6.364554554,0.800216917,0.013186558,-0.190472781,,,,,,
6.37337617,0.202835492,0.004589421,-0.058620397,,,,,,
6.378140993,1.145233621,0.014201787,-0.240170087,,,,,,
6.380681987,1.599942841,0.012673505,-0.278164131,,,,,,
6.381398858,1.75817998,0.011656298,-0.284340923,,,,,,
6.382704934,0.336097708,0.007032672,-0.093210915,,,,,,
6.382969793,1.367051445,0.013736622,-0.262497509,,,,,,
6.382969793,1.367051445,0.013736622,-0.262497509,,,,,,
6.382969793,1.367051445,0.013736622,-0.262497509,,,,,,
6.382969793,1.367051445,0.013736622,-0.262497509,,,,,,
6.382969793,1.367051445,0.013736622,-0.262497509,,,,,,
6.382969793,1.367051445,0.013736622,-0.262497509,,,,,,
6.385837276,2,0.010107404,-0.286884849,,,,,,
6.385837276,2,0.010107404,-0.286884849,,,,,,
6.385837276,2,0.010107404,-0.286884849,,,,,,
6.386101613,0.46749028,0.009088658,-0.124349618,,,,,,
6.386101613,0.46749028,0.009088658,-0.124349618,,,,,,
6.386870838,0.929827796,0.013472823,-0.211252602,,,,,,
6.386870838,0.929827796,0.013472823,-0.211252602,,,,,,
6.391304348,0,0,0,,,,,,
6.391304348,0,0,0,,,,,,
6.391304348,0,0,0,,,,,,
6.39404524,0.602177339,0.010703135,-0.153242962,,,,,,
6.39404524,0.602177339,0.010703135,-0.153242962,,,,,,
6.399128717,0.731088444,0.011895462,-0.17809957,,,,,,
6.403253277,1.065993968,0.013521159,-0.230262761,,,,,,
6.403253277,1.065993968,0.013521159,-0.230262761,,,,,,
6.406565197,0.135131861,0.002974496,-0.039827231,,,,,,
6.408082076,1.287811792,0.013365259,-0.2552372,,,,,,
6.408082076,1.287811792,0.013365259,-0.2552372,,,,,,
6.412805653,1.517495626,0.012435927,-0.273369196,,,,,,
6.412828598,0.860349436,0.012528136,-0.200285448,,,,,,
6.414239395,1.833969903,0.010579502,-0.285883445,,,,,,
6.421826046,0.270263723,0.005452034,-0.076432355,,,,,,
6.421826046,0.270263723,0.005452034,-0.076432355,,,,,,
6.425222725,0.401656294,0.007549738,-0.109016499,,,,,,
6.428619404,0.533048865,0.009276959,-0.138676781,,,,,,
6.428619404,0.533048865,0.009276959,-0.138676781,,,,,,
6.428619404,0.533048865,0.009276959,-0.138676781,,,,,,
6.428619404,0.533048865,0.009276959,-0.138676781,,,,,,
6.428619404,0.533048865,0.009276959,-0.138676781,,,,,,
6.428619404,0.533048865,0.009276959,-0.138676781,,,,,,
6.43319436,1.208572139,0.012884102,-0.247049176,,,,,,
6.43319436,1.208572139,0.012884102,-0.247049176,,,,,,
6.43370288,0.661959971,0.01057913,-0.164980065,,,,,,
6.435144882,0.989960315,0.012590815,-0.219826723,,,,,,
6.435144882,0.989960315,0.012590815,-0.219826723,,,,,,
6.438786357,0.790871076,0.011525964,-0.188567951,,,,,,
6.438786357,0.790871076,0.011525964,-0.188567951,,,,,,
6.439754224,0.067428231,0.001436914,-0.020261333,,,,,,
6.439754224,0.067428231,0.001436914,-0.020261333,,,,,,
6.442641514,1.667939806,0.011016505,-0.280976547,,,,,,
6.442641514,1.667939806,0.011016505,-0.280976547,,,,,,
6.44492932,1.43504841,0.012083949,-0.267600688,,,,,,
6.44492932,1.43504841,0.012083949,-0.267600688,,,,,,
6.447079932,1.909759826,0.009588063,-0.286618677,,,,,,
6.447079932,1.909759826,0.009588063,-0.286618677,,,,,,
6.455015073,0.202560092,0.003963316,-0.058441853,,,,,,
6.458306643,1.129332486,0.012299152,-0.237924194,,,,,,
6.458306643,1.129332486,0.012299152,-0.237924194,,,,,,
6.459807698,2,0.008954253,-0.286539928,,,,,,
6.461102642,0.920481955,0.011746363,-0.209532144,,,,,,
6.464343837,0.335822308,0.00606526,-0.092982457,,,,,,
6.464885063,1.341916807,0.011924273,-0.259965985,,,,,,
6.464885063,1.341916807,0.011924273,-0.259965985,,,,,,
6.467391304,0,0,0,,,,,,
6.467740516,0.46721488,0.00783534,-0.124077682,,,,,,
6.467740516,0.46721488,0.00783534,-0.124077682,,,,,,
6.468277044,0.592831497,0.009253827,-0.151106504,,,,,,
6.468277044,0.592831497,0.009253827,-0.151106504,,,,,,
6.47336052,0.721742603,0.010306428,-0.176129821,,,,,,
6.47476518,1.58549259,0.010786768,-0.27700975,,,,,,
6.475482051,1.743729729,0.009965012,-0.283515903,,,,,,
6.483418926,1.050092834,0.011618592,-0.227852787,,,,,,
6.483418926,1.050092834,0.011618592,-0.227852787,,,,,,
6.483418926,1.050092834,0.011618592,-0.227852787,,,,,,
6.483418926,1.050092834,0.011618592,-0.227852787,,,,,,
6.483418926,1.050092834,0.011618592,-0.227852787,,,,,,
6.483418926,1.050092834,0.011618592,-0.227852787,,,,,,
6.487060401,0.851003595,0.010846224,-0.198492625,,,,,,
6.488204099,0.134856461,0.002545448,-0.039682993,,,,,,
6.488204099,0.134856461,0.002545448,-0.039682993,,,,,,
6.489997347,1.262677154,0.011498973,-0.252433717,,,,,,
6.503464948,0.269988322,0.004653207,-0.076239586,,,,,,
6.503464948,0.269988322,0.004653207,-0.076239586,,,,,,
6.505590615,0.53196314,0.007978671,-0.138243718,,,,,,
6.505590615,0.53196314,0.007978671,-0.138243718,,,,,,
6.506861627,0.401380894,0.006441252,-0.108781768,,,,,,
6.506861627,0.401380894,0.006441252,-0.108781768,,,,,,
6.506888846,1.503045375,0.010460508,-0.272074352,,,,,,
6.506888846,1.503045375,0.010460508,-0.272074352,,,,,,
6.507934684,0.65261413,0.009074436,-0.162942246,,,,,,
6.507934684,0.65261413,0.009074436,-0.162942246,,,,,,
6.508322588,1.819519652,0.008972864,-0.285246509,,,,,,
6.508322588,1.819519652,0.008972864,-0.285246509,,,,,,
6.509376686,0.980614474,0.01086141,-0.218222303,,,,,,
6.509376686,0.980614474,0.01086141,-0.218222303,,,,,,
6.51301816,0.781525235,0.009901336,-0.186701205,,,,,,
6.51301816,0.781525235,0.009901336,-0.186701205,,,,,,
6.51510963,1.183437501,0.010979765,-0.243971109,,,,,,
6.51584118,0.067428231,0.001235004,-0.020231492,,,,,,
6.521050354,1.909759826,0.008337562,-0.286335439,,,,,,
6.52684459,1.409913771,0.010337113,-0.265377659,,,,,,
6.533778119,2,0.007776695,-0.286256852,,,,,,
6.535334445,0.911136114,0.01005071,-0.207852467,,,,,,
6.535334445,0.911136114,0.01005071,-0.207852467,,,,,,
6.536653975,0.202284692,0.003347845,-0.058280445,,,,,,
6.536653975,0.202284692,0.003347845,-0.058280445,,,,,,
6.536724707,1.653489555,0.009208159,-0.280028717,,,,,,
6.536724707,1.653489555,0.009208159,-0.280028717,,,,,,
6.540221913,1.104197848,0.010373617,-0.234568949,,,,,,
6.540221913,1.104197848,0.010373617,-0.234568949,,,,,,
6.543478261,0,0,0,,,,,,
6.544711727,0.466129155,0.006661083,-0.123668575,,,,,,
6.545248255,0.591745773,0.007870497,-0.150687774,,,,,,
6.545982739,0.335546908,0.005112395,-0.092781228,,,,,,
6.545982739,0.335546908,0.005112395,-0.092781228,,,,,,
6.546800334,1.316782168,0.010106081,-0.257413865,,,,,,
6.546800334,1.316782168,0.010106081,-0.257413865,,,,,,
6.547592324,0.712396762,0.008754838,-0.174192875,,,,,,
6.547592324,0.712396762,0.008754838,-0.174192875,,,,,,
6.554204461,1.030441986,0.00995367,-0.224992923,,,,,,
6.554204461,1.030441986,0.00995367,-0.224992923,,,,,,
6.561292204,0.841657754,0.009196884,-0.196736363,,,,,,
6.561292204,0.841657754,0.009196884,-0.196736363,,,,,,
6.564291056,0.134856461,0.002156559,-0.039631206,,,,,,
6.568848373,1.571042339,0.008886586,-0.275919465,,,,,,
6.568848373,1.571042339,0.008886586,-0.275919465,,,,,,
6.569565244,1.729279478,0.008239646,-0.282755809,,,,,,
6.569565244,1.729279478,0.008239646,-0.282755809,,,,,,
6.571912617,1.237542515,0.009636351,-0.249605701,,,,,,
6.58016222,0.960963627,0.009209701,-0.215173265,,,,,,
6.58229301,1.819519652,0.007634595,-0.285013738,,,,,,
6.582561827,0.530877416,0.006699355,-0.137845771,,,,,,
6.582561827,0.530877416,0.006699355,-0.137845771,,,,,,
6.583832839,0.400295169,0.00540146,-0.108393321,,,,,,
6.584905895,0.651528405,0.0076164,-0.162541236,,,,,,
6.585103851,0.269712922,0.003866538,-0.076068296,,,,,,
6.585103851,0.269712922,0.003866538,-0.076068296,,,,,,
6.585103851,0.269712922,0.003866538,-0.076068296,,,,,,
6.585103851,0.269712922,0.003866538,-0.076068296,,,,,,
6.585103851,0.269712922,0.003866538,-0.076068296,,,,,,
6.585103851,0.269712922,0.003866538,-0.076068296,,,,,,
6.587249964,0.772179394,0.008311028,-0.184866874,,,,,,
6.587249964,0.772179394,0.008311028,-0.184866874,,,,,,
6.587249964,0.772179394,0.008311028,-0.184866874,,,,,,
6.587249964,0.772179394,0.008311028,-0.184866874,,,,,,
6.587249964,0.772179394,0.008311028,-0.184866874,,,,,,
6.587249964,0.772179394,0.008311028,-0.184866874,,,,,,
6.588804117,1.477910736,0.008775019,-0.270152212,,,,,,
6.591928137,0.067428231,0.001035915,-0.020206479,,,,,,
6.595020775,1.909759826,0.00707353,-0.28610645,,,,,,
6.5970249,1.158302862,0.009088434,-0.24086461,,,,,,
6.5970249,1.158302862,0.009088434,-0.24086461,,,,,,
6.60611998,0.891485267,0.008424919,-0.204612092,,,,,,
6.607748541,2,0.006577855,-0.286028159,,,,,,
6.60875986,1.384779133,0.008575348,-0.263126753,,,,,,
6.611007448,1.084547001,0.00872962,-0.231905961,,,,,,
6.612740932,0.202284692,0.002786198,-0.058213788,,,,,,
6.612740932,0.202284692,0.002786198,-0.058213788,,,,,,
6.619565217,0,0,0,,,,,,
6.621682938,0.46504343,0.005504091,-0.123289602,,,,,,
6.622219467,0.590660048,0.006505899,-0.15030562,,,,,,
6.622953951,0.334461183,0.004217362,-0.092410234,,,,,,
6.622953951,0.334461183,0.004217362,-0.092410234,,,,,,
6.624563535,0.711311037,0.007232145,-0.173812482,,,,,,
6.624563535,0.711311037,0.007232145,-0.173812482,,,,,,
6.624989996,1.010791139,0.008312059,-0.22211964,,,,,,
6.624989996,1.010791139,0.008312059,-0.22211964,,,,,,
6.628715604,1.29164753,0.008283799,-0.25483107,,,,,,
6.628715604,1.29164753,0.008283799,-0.25483107,,,,,,
6.6308079,1.639039304,0.007377697,-0.279134946,,,,,,
6.6308079,1.639039304,0.007377697,-0.279134946,,,,,,
6.6308079,1.639039304,0.007377697,-0.279134946,,,,,,
6.6308079,1.639039304,0.007377697,-0.279134946,,,,,,
6.6308079,1.639039304,0.007377697,-0.279134946,,,,,,
6.6308079,1.639039304,0.007377697,-0.279134946,,,,,,
6.6308079,1.639039304,0.007377697,-0.279134946,,,,,,
6.632077739,0.822006907,0.007610026,-0.193302331,,,,,,
6.632077739,0.822006907,0.007610026,-0.193302331,,,,,,
6.640378012,0.134856461,0.00177254,-0.039588583,,,,,,
6.640378012,0.134856461,0.00177254,-0.039588583,,,,,,
6.643535665,1.729279478,0.006823647,-0.282565137,,,,,,
6.643535665,1.729279478,0.006823647,-0.282565137,,,,,,
6.644953811,0.764182345,0.007093945,-0.183331016,,,,,,
6.644953811,0.764182345,0.007093945,-0.183331016,,,,,,
6.650763643,1.545907701,0.007257272,-0.274291103,,,,,,
6.650763643,1.545907701,0.007257272,-0.274291103,,,,,,
6.650947755,0.941312779,0.00758665,-0.212107813,,,,,,
6.653827887,1.212407877,0.007778697,-0.246743753,,,,,,
6.653827887,1.212407877,0.007778697,-0.246743753,,,,,,
6.656263431,1.819519652,0.006290912,-0.284829113,,,,,,
6.656263431,1.819519652,0.006290912,-0.284829113,,,,,,
6.659533038,0.529791691,0.005437158,-0.137480039,,,,,,
6.659533038,0.529791691,0.005437158,-0.137480039,,,,,,
6.66080405,0.399209444,0.004377218,-0.108030362,,,,,,
6.66080405,0.399209444,0.004377218,-0.108030362,,,,,,
6.661877107,0.65044268,0.006176546,-0.162177826,,,,,,
6.661877107,0.65044268,0.006176546,-0.162177826,,,,,,
6.667810435,1.138652015,0.007465927,-0.238395611,,,,,,
6.668015093,0.067428231,0.000839311,-0.020186082,,,,,,
6.668015093,0.067428231,0.000839311,-0.020186082,,,,,,
6.668991197,1.909759826,0.005797817,-0.285925254,,,,,,
6.668991197,1.909759826,0.005797817,-0.285925254,,,,,,
6.670719387,1.452776098,0.007066628,-0.26819591,,,,,,
6.670719387,1.452776098,0.007066628,-0.26819591,,,,,,
6.676905514,0.87183442,0.006833182,-0.201352275,,,,,,
6.676905514,0.87183442,0.006833182,-0.201352275,,,,,,
6.681718963,2,0.005360991,-0.28584766,,,,,,
6.681718963,2,0.005360991,-0.28584766,,,,,,
6.681718963,2,0.005360991,-0.28584766,,,,,,
6.681792983,1.064896154,0.007102953,-0.229226369,,,,,,
6.682267382,0.703313988,0.006068032,-0.17221859,,,,,,
6.688827888,0.273713263,0.002923145,-0.077001903,,,,,,
6.688827888,0.273713263,0.002923145,-0.077001903,,,,,,
6.689781586,0.814009858,0.006373946,-0.191843965,,,,,,
6.690675131,1.359644494,0.006800582,-0.260839341,,,,,,
6.690675131,1.359644494,0.006800582,-0.260839341,,,,,,
6.695652174,0,0,0,,,,,,
6.695652174,0,0,0,,,,,,
6.695652174,0,0,0,,,,,,
6.69577553,0.991140292,0.006693736,-0.219227921,,,,,,
6.69577553,0.991140292,0.006693736,-0.219227921,,,,,,
6.69865415,0.463957705,0.004362527,-0.122938476,,,,,,
6.69865415,0.463957705,0.004362527,-0.122938476,,,,,,
6.699190678,0.589574323,0.005157864,-0.149957031,,,,,,
6.699190678,0.589574323,0.005157864,-0.149957031,,,,,,
6.702657657,0.756185296,0.005896491,-0.18180821,,,,,,
6.702657657,0.756185296,0.005896491,-0.18180821,,,,,,
6.710630874,1.266512891,0.006458747,-0.252209461,,,,,,
6.710630874,1.266512891,0.006458747,-0.252209461,,,,,,
6.710630874,1.266512891,0.006458747,-0.252209461,,,,,,
6.710630874,1.266512891,0.006458747,-0.252209461,,,,,,
6.710630874,1.266512891,0.006458747,-0.252209461,,,,,,
6.710630874,1.266512891,0.006458747,-0.252209461,,,,,,
6.716464969,0.206285033,0.002066896,-0.059221857,,,,,,
6.719580954,0.642445631,0.005073218,-0.16052387,,,,,,
6.72173329,0.921661932,0.005992241,-0.209021315,,,,,,
6.72173329,0.921661932,0.005992241,-0.209021315,,,,,,
6.723105925,1.657850907,0.00548096,-0.279766038,,,,,,
6.723105925,1.657850907,0.00548096,-0.279766038,,,,,,
6.723105925,1.586422335,0.005653563,-0.276390497,,,,,,
6.723105925,1.586422335,0.005653563,-0.276390497,,,,,,
6.724613422,1.19275703,0.006177796,-0.244465729,,,,,,
6.724613422,1.19275703,0.006177796,-0.244465729,,,,,,
6.726677988,0.338461524,0.003074448,-0.093292947,,,,,,
6.734609361,0.863837371,0.005581366,-0.199971542,,,,,,
6.735833691,1.748091081,0.005011501,-0.282961231,,,,,,
6.73650425,0.528705966,0.004189941,-0.137144093,,,,,,
6.73650425,0.528705966,0.004189941,-0.137144093,,,,,,
6.73650425,0.528705966,0.004189941,-0.137144093,,,,,,
6.73650425,0.528705966,0.004189941,-0.137144093,,,,,,
6.73650425,0.528705966,0.004189941,-0.137144093,,,,,,
6.73650425,0.528705966,0.004189941,-0.137144093,,,,,,
6.73859597,1.119001168,0.005854811,-0.23590714,,,,,,
6.73859597,1.119001168,0.005854811,-0.23590714,,,,,,
6.739971229,0.695316939,0.004924434,-0.170635708,,,,,,
6.743061668,1.493290732,0.005432315,-0.270851006,,,,,,
6.74410205,0.138856802,0.001290727,-0.04066902,,,,,,
6.747485433,0.806012809,0.005155223,-0.190398138,,,,,,
6.748561456,1.838331255,0.004566054,-0.284988078,,,,,,
6.752578517,1.045245307,0.005493515,-0.226525855,,,,,,
6.752578517,1.045245307,0.005493515,-0.226525855,,,,,,
6.756894525,0.581577274,0.004123195,-0.148240944,,,,,,
6.756894525,0.581577274,0.004123195,-0.148240944,,,,,,
6.760361504,0.748188247,0.004717708,-0.180296772,,,,,,
6.760361504,0.748188247,0.004717708,-0.180296772,,,,,,
6.761289222,2,0.004035691,-0.285701563,,,,,,
6.761289222,1.928571429,0.004157298,-0.285843798,,,,,,
6.761289222,1.928571429,0.004157298,-0.285843798,,,,,,
6.763017412,1.400159129,0.005150199,-0.264054446,,,,,,
6.764528088,0.403209785,0.003051365,-0.108867929,,,,,,
6.766561065,0.971489445,0.005098592,-0.216313646,,,,,,
6.766561065,0.971489445,0.005098592,-0.216313646,,,,,,
6.766561065,0.971489445,0.005098592,-0.216313646,,,,,,
6.766561065,0.971489445,0.005098592,-0.216313646,,,,,,
6.766561065,0.971489445,0.005098592,-0.216313646,,,,,,
6.766561065,0.971489445,0.005098592,-0.216313646,,,,,,
6.77173913,0,0,0,,,,,,
6.77173913,0.071428571,0.000607737,-0.021336678,,,,,,
6.77173913,0.071428571,0.000607737,-0.021336678,,,,,,
6.7772848,0.634448582,0.003991322,-0.158878982,,,,,,
6.7772848,0.634448582,0.003991322,-0.158878982,,,,,,
6.779437137,0.913664884,0.004727727,-0.207718143,,,,,,
6.779437137,0.913664884,0.004727727,-0.207718143,,,,,,
6.782973156,1.307027525,0.004807251,-0.255990154,,,,,,
6.782973156,1.235598954,0.004849038,-0.248958098,,,,,,
6.782973156,1.307027525,0.004807251,-0.255990154,,,,,,
6.782973156,1.235598954,0.004849038,-0.248958098,,,,,,
6.792313208,0.855840322,0.004344539,-0.198602811,,,,,,
6.792313208,0.855840322,0.004344539,-0.198602811,,,,,,
6.792551925,0.277713604,0.001966527,-0.07796084,,,,,,
6.792551925,0.277713604,0.001966527,-0.07796084,,,,,,
6.796955703,1.161843093,0.004547345,-0.240880204,,,,,,
6.797675076,0.68731989,0.003800417,-0.169062389,,,,,,
6.797675076,0.68731989,0.003800417,-0.169062389,,,,,,
6.802378187,0.467958046,0.002870102,-0.123736045,,,,,,
6.802378187,0.467958046,0.002870102,-0.123736045,,,,,,
6.802378187,0.539386617,0.003180731,-0.139360939,,,,,,
6.802378187,0.539386617,0.003180731,-0.139360939,,,,,,
6.80518928,0.79801576,0.003952829,-0.188963328,,,,,,
6.80518928,0.79801576,0.003952829,-0.188963328,,,,,,
6.810938251,1.088087231,0.004215405,-0.231984622,,,,,,
6.81540395,1.676662509,0.003621097,-0.280406186,,,,,,
6.81540395,1.676662509,0.003621097,-0.280406186,,,,,,
6.81540395,1.533805366,0.003842556,-0.273305268,,,,,,
6.81540395,1.605233938,0.003735818,-0.2772235,,,,,,
6.81540395,1.533805366,0.003842556,-0.273305268,,,,,,
6.818065351,0.740191199,0.003556603,-0.178795295,,,,,,
6.818065351,0.740191199,0.003556603,-0.178795295,,,,,,
6.818065351,0.740191199,0.003556603,-0.178795295,,,,,,
6.818065351,0.740191199,0.003556603,-0.178795295,,,,,,
6.818065351,0.740191199,0.003556603,-0.178795295,,,,,,
6.820189006,0.210285373,0.001329428,-0.060248127,,,,,,
6.822768463,0.592257926,0.003036906,-0.150366859,,,,,,
6.824920799,0.942902798,0.003786301,-0.212067125,,,,,,
6.824920799,1.01433137,0.003857893,-0.222263319,,,,,,
6.824920799,0.942902798,0.003786301,-0.212067125,,,,,,
6.824920799,1.01433137,0.003857893,-0.222263319,,,,,,
6.828131716,1.766902683,0.003232286,-0.283364813,,,,,,
6.830402025,0.342461865,0.00192073,-0.094206681,,,,,,
6.835359693,1.440673763,0.003533788,-0.267065976,,,,,,
6.83779687,0.885078237,0.003433534,-0.203220607,,,,,,
6.840859481,2,0.002697605,-0.285600607,,,,,,
6.840859481,1.857142857,0.002867794,-0.285153284,,,,,,
6.840859481,1.928571429,0.002776671,-0.285746382,,,,,,
6.840859481,1.857142857,0.002867794,-0.285153284,,,,,,
6.843158738,0.645129234,0.002835285,-0.160915806,,,,,,
6.847826087,0,0,0,,,,,,
6.847826087,0.142857143,0.000785954,-0.041760437,,,,,,
6.847826087,0.071428571,0.000404268,-0.021325895,,,,,,
6.847826087,0.142857143,0.000785954,-0.041760437,,,,,,
6.850672942,0.827253675,0.003076019,-0.193852173,,,,,,
6.855315437,1.34754216,0.003177024,-0.259563892,,,,,,
6.855315437,1.204685017,0.003234076,-0.245599113,,,,,,
6.855315437,1.276113588,0.003214509,-0.252959924,,,,,,
6.855315437,1.34754216,0.003177024,-0.259563892,,,,,,
6.855315437,1.204685017,0.003234076,-0.245599113,,,,,,
6.863549013,0.769429113,0.002717754,-0.183957413,,,,,,
6.863549013,0.769429113,0.002717754,-0.183957413,,,,,,
6.863549013,0.698000542,0.002581919,-0.171011849,,,,,,
6.863549013,0.698000542,0.002581919,-0.171011849,,,,,,
6.868252125,0.407210126,0.001716457,-0.109741527,,,,,,
6.868252125,0.407210126,0.001716457,-0.109741527,,,,,,
6.868252125,0.550067269,0.002146514,-0.14157714,,,,,,
6.868252125,0.478638697,0.001943184,-0.126082995,,,,,,
6.868252125,0.550067269,0.002146514,-0.14157714,,,,,,
6.869297985,1.130929155,0.002920456,-0.237185507,,,,,,
6.883280533,0.914316151,0.002497085,-0.207715801,,,,,,
6.883280533,1.057173294,0.002588877,-0.227951181,,,,,,
6.883280533,0.914316151,0.002497085,-0.207715801,,,,,,
6.883280533,0.985744723,0.00255245,-0.218226894,,,,,,
6.883280533,1.057173294,0.002588877,-0.227951181,,,,,,
6.8886424,0.602938577,0.001928101,-0.15249365,,,,,,
6.896156604,0.85649159,0.002168608,-0.198616711,,,,,,
6.896275963,0.281713945,0.000993413,-0.078944536,,,,,,
6.896275963,0.281713945,0.000993413,-0.078944536,,,,,,
6.907701975,1.695474112,0.001794783,-0.281048757,,,,,,
6.907701975,1.695474112,0.001794783,-0.281048757,,,,,,
6.907701975,1.481188397,0.001954907,-0.269871818,,,,,,
6.907701975,1.552616969,0.001906225,-0.274334479,,,,,,
6.907701975,1.62404554,0.001852182,-0.278059285,,,,,,
6.907701975,1.481188397,0.001954907,-0.269871818,,,,,,
6.909032675,0.798667028,0.0018431,-0.188993496,,,,,,
6.909032675,0.798667028,0.0018431,-0.188993496,,,,,,
6.909032675,0.655809885,0.001659136,-0.16295487,,,,,,
6.909032675,0.727238456,0.001759163,-0.176382811,,,,,,
6.909032675,0.655809885,0.001659136,-0.16295487,,,,,,
6.920429741,2,0.001350954,-0.285541399,,,,,,
6.920429741,1.785714286,0.001483645,-0.283769878,,,,,,
6.920429741,1.928571429,0.001389879,-0.285689305,,,,,,
6.920429741,1.857142857,0.001434868,-0.285097678,,,,,,
6.920429741,1.785714286,0.001483645,-0.283769878,,,,,,
6.923913043,0,0,0,,,,,,
6.923913043,0.214285714,0.000571183,-0.061292706,,,,,,
6.923913043,0.071428571,0.00020186,-0.021319465,,,,,,
6.923913043,0.142857143,0.000392471,-0.041748103,,,,,,
6.923913043,0.214285714,0.000571183,-0.061292706,,,,,,
6.927657719,1.388056794,0.001573088,-0.262929333,,,,,,
6.927657719,1.17377108,0.001616784,-0.242129912,,,,,,
6.927657719,1.245199651,0.001611222,-0.249820422,,,,,,
6.927657719,1.316628223,0.001596337,-0.256751455,,,,,,
6.927657719,1.388056794,0.001573088,-0.262929333,,,,,,
6.927657719,1.17377108,0.001616784,-0.242129912,,,,,,
6.934126062,0.346462206,0.000752064,-0.095150577,,,,,,
6.934126062,0.346462206,0.000752064,-0.095150577,,,,,,
6.934126062,0.56074792,0.001086558,-0.143792924,,,,,,
6.934126062,0.417890777,0.000875177,-0.112216046,,,,,,
6.934126062,0.489319349,0.00098672,-0.128427372,,,,,,
6.934126062,0.56074792,0.001086558,-0.143792924,,,,,,
6.941640266,0.885729504,0.001233953,-0.203257925,,,,,,
6.941640266,1.100015218,0.001300188,-0.233379081,,,,,,
6.941640266,0.885729504,0.001233953,-0.203257925,,,,,,
6.941640266,0.957158076,0.001265507,-0.214085464,,,,,,
6.941640266,1.028586647,0.001287457,-0.224123151,,,,,,
6.941640266,1.100015218,0.001300188,-0.233379081,,,,,,
6.954516338,0.827904943,0.000936072,-0.193904656,,,,,,
6.954516338,0.827904943,0.000936072,-0.193904656,,,,,,
6.954516338,0.613619228,0.000795907,-0.154621475,,,,,,
6.954516338,0.6850478,0.000850688,-0.168535205,,,,,,
6.954516338,0.756476371,0.000897382,-0.181626722,,,,,,
6.954516338,0.613619228,0.000795907,-0.154621475,,,,,,
7,2,0,-0.285521895,,,,,,
7,1.714285714,0,-0.281689856,,,,,,
7,1.857142857,0,-0.285079361,,,,,,
7,1.785714286,0,-0.283751856,,,,,,
7,1.928571429,0,-0.285670509,,,,,,
7,0,0,0,,,,,,
7,0.285714286,0,-0.079952979,,,,,,
7,0.142857143,0,-0.041744022,,,,,,
7,0.071428571,0,-0.021317333,,,,,,
7,0.214285714,0,-0.061286818,,,,,,
7,0.285714286,0,-0.079952979,,,,,,
7,1.714285714,0,-0.281689856,,,,,,
7,0.285714286,0,-0.079952979,,,,,,
7,0.285714286,0,-0.079952979,,,,,,
7,0.571428571,0,-0.146008699,,,,,,
7,0.428571429,0,-0.114686358,,,,,,
7,0.357142857,0,-0.097750178,,,,,,
7,0.5,0,-0.130769736,,,,,,
7,0.857142857,0,-0.198691965,,,,,,
7,0.571428571,0,-0.146008699,,,,,,
7,0.857142857,0,-0.198691965,,,,,,
7,0.714285714,0,-0.173987601,,,,,,
7,0.642857143,0,-0.160411783,,,,,,
7,0.785714286,0,-0.186744791,,,,,,
7,0.857142857,0,-0.198691965,,,,,,
7,1.142857143,0,-0.238548738,,,,,,
7,1,0,-0.220190274,,,,,,
7,0.928571429,0,-0.209837657,,,,,,
7,1.071428571,0,-0.229757998,,,,,,
7,1.142857143,0,-0.238548738,,,,,,
7,1.428571429,0,-0.266085693,,,,,,
7,1.285714286,0,-0.253829054,,,,,,
7,1.214285714,0,-0.246570048,,,,,,
7,1.357142857,0,-0.260332302,,,,,,
7,1.428571429,0,-0.266085693,,,,,,
7,1.714285714,0,-0.281689856,,,,,,
7,1.571428571,0,-0.275362633,,,,,,
7,1.5,0,-0.271094361,,,,,,
7,1.642857143,0,-0.278893758,,,,,,
7,1.428571429,0,-0.266085693,,,,,,
7,1.142857143,0,-0.238548738,,,,,,
7,0.571428571,0,-0.146008699,,,,,,
