X,Y,ux,uy,,,X1,Y1,sigma_xx,sigma_yy,sigma_xy
0,1.821428571,0,-0.001035459,,,0.014573264,2.843195154,-1.001525062,-2.831432878,-0.001595417
0,0.857142857,0,-0.000594123,,,0.014573264,2.703416562,-1.998752552,-5.368134691,-0.002664885
0,1.714285714,0,-0.000998822,,,0.014573264,2.437400175,-3.853480293,-10.21731001,-0.003817713
0,1.071428571,0,-0.000713572,,,0.014573264,2.297621583,-4.816720454,-12.77099809,-0.003989381
0,0.857142857,0,-0.000594123,,,0.015303329,1.144482634,-13.14778256,-33.67027014,0.00210773
0,1.285714286,0,-0.000820971,,,0.015303329,1.004704042,-14.25670072,-36.16144183,0.003334683
0,0,0,0,,,0.017300066,2.597255628,-2.744146767,-7.300727948,-0.003870338
0,1.607142857,0,-0.000959035,,,0.017300066,2.944712609,-0.262785762,-0.996343122,-0.000722693
0,1.5,0,-0.000916116,,,0.017300066,2.195722348,-5.518356034,-14.63301334,-0.004686323
0,0.535714286,0,-0.000392823,,,0.017300066,2.54317933,-3.120830156,-8.2866494,-0.004148636
0,0.75,0,-0.000529947,,,0.018166733,1.248913987,-12.33688954,-31.80181519,0.001436537
0,1.285714286,0,-0.000820971,,,0.018166733,0.901457006,-15.09367248,-37.9943224,0.005033335
0,1.178571429,0,-0.00076879,,,0.019727876,1.570140046,-9.929836018,-26.01788567,-0.001704105
0,2.142857143,0,-0.001126318,,,0.019727876,1.430361454,-10.96195533,-28.54123676,-0.000347527
0,2.571428571,0,-0.001202725,,,0.021981693,0.721558783,-16.58911769,-41.17342442,0.008325039
0,2.142857143,0,-0.001126318,,,0.021981693,0.581780191,-17.78362808,-43.6311881,0.00998126
0,2.25,0,-0.001150219,,,0.023419157,1.674026159,-9.176348212,-24.13653121,-0.003104132
0,2.464285714,0,-0.00118842,,,0.023419157,1.326569178,-11.74327915,-30.40850493,0.000864476
0,2.357142857,0,-0.00117092,,,0.024134242,2.004415309,-6.841866539,-18.12601461,-0.005829593
0,1.928571429,0,-0.001068929,,,0.024134242,1.864636717,-7.819751418,-20.67326066,-0.004899766
0,2.035714286,0,-0.001099219,,,0.024801023,0.272786785,-20.5220822,-49.02933005,0.014863781
0,0.964285714,0,-0.00065534,,,0.024801023,0.133008193,-21.8021396,-51.45781918,0.016139672
0,1.285714286,0,-0.000820971,,,0.026094685,0.479589873,-18.67465841,-45.42148552,0.013205755
0,2.142857143,0,-0.001126318,,,0.026094685,0.827046854,-15.70639493,-39.31145422,0.008336948
0,1.714285714,0,-0.000998822,,,0.028649998,2.109368666,-6.114212583,-16.21039535,-0.007489184
0,0.428571429,0,-0.000319927,,,0.028649998,1.761911684,-8.546997895,-22.54138657,-0.004799461
0,0.214285714,0,-0.000165589,,,0.02944154,0.027038149,-22.787722,-53.29453097,0.020077458
0,0.321428571,0,-0.000244175,,,0.02944154,0.37449513,-19.60624484,-47.25731801,0.016365105
0,1.392857143,0,-0.000870087,,,0.04158589,1.289768879,-12.02327177,-31.06907481,0.002365376
0,0.107142857,0,-8.4191E-05,,,0.044261418,0.871361003,-15.340107,-38.52720338,0.013026887
0,3,0,-0.00122827,,,0.045950064,2.162233871,-5.749152978,-15.24480321,-0.012304505
0,2.571428571,0,-0.001202725,,,0.047420121,2.971750758,-0.064353028,-0.508798538,-0.001034674
0,3,0,-0.00122827,,,0.052069155,1.721652129,-8.834046947,-23.27241669,-0.007899212
0,0.428571429,0,-0.000319927,,,0.066654625,0.451563229,-18.92073231,-45.91082715,0.034648787
0,2.785714286,0,-0.001221795,,,0.068358607,2.673480298,-2.210758737,-5.912661492,-0.013376169
0,2.892857143,0,-0.001226595,,,0.068358607,2.781540197,-1.445138732,-3.949078955,-0.009880816
0,2.678571429,0,-0.001213845,,,0.068358607,2.351746045,-4.444248687,-11.78196814,-0.018561521
0,0.428571429,0,-0.000319927,,,0.068358607,2.459805945,-3.699052753,-9.808175071,-0.017648897
0,0.857142857,0,-0.000594123,,,0.070001479,0.400544785,-19.37302883,-46.80190937,0.038073692
0,0.642857143,0,-0.000462838,,,0.071783111,1.140303445,-13.17913738,-33.74430725,0.010081937
0,0.428571429,0,-0.000319927,,,0.071783111,1.032243546,-14.0346219,-35.67083389,0.014508454
0,1.714285714,0,-0.000998822,,,0.085103848,2.588247319,-2.808119033,-7.46490887,-0.019285147
0.068554193,2.352343715,7.54492E-07,-0.001170054,,,0.085103848,2.838257654,-1.039234364,-2.920864823,-0.009562271
0.068554193,2.245200858,8.81216E-07,-0.00114921,,,0.085103848,2.292684084,-4.850756541,-12.86118983,-0.023305754
0.068554193,2.459486572,6.30102E-07,-0.001187697,,,0.085103848,2.542694419,-3.125126112,-8.29549148,-0.020415149
0.068554193,2.780915143,3.10112E-07,-0.001221497,,,0.089367224,1.214915102,-12.59713073,-32.40991112,0.00879895
0.068554193,2.673772286,4.03818E-07,-0.001213406,,,0.089367224,0.964904766,-14.57530486,-36.86757518,0.021535997
0.068554193,2.888058,2.3503E-07,-0.001226436,,,0.092537273,1.555206141,-10.03713264,-26.28735631,-0.007294109
0.068554193,2.566629429,5.11876E-07,-0.001202144,,,0.092537273,1.447146242,-10.8347471,-28.23805473,-0.002403207
0.068554193,2.888058,2.3503E-07,-0.001226436,,,0.103109221,0.73822303,-16.44576244,-40.87793214,0.038140033
0.068554193,2.566629429,5.11876E-07,-0.001202144,,,0.103109221,0.630163131,-17.36425072,-42.77974262,0.044213404
0.068554193,2.245200858,8.81216E-07,-0.00114921,,,0.1090951,1.249330527,-12.33048977,-31.79308485,0.008680251
0.071988496,1.032744541,1.64072E-06,-0.000692883,,,0.10923809,2.264473993,-5.044802486,-13.37664152,-0.029898443
0.071988496,1.139887399,1.67945E-06,-0.000749193,,,0.11047644,2.861034104,-0.87643755,-2.50848192,-0.010868872
0.071988496,1.247030256,1.69374E-06,-0.000802473,,,0.111348917,0.939552435,-14.77958315,-37.31693965,0.028475404
0.071988496,0.925601684,1.57691E-06,-0.000633571,,,0.113206155,2.010532466,-6.797935149,-18.0141351,-0.027461768
0.071988496,0.925601684,1.57691E-06,-0.000633571,,,0.113206155,1.902472567,-7.552042198,-19.98390421,-0.024293132
0.071988496,1.247030256,1.69374E-06,-0.000802473,,,0.115205361,1.626469481,-9.517107188,-24.99757837,-0.01282314
0.092802039,1.447608128,2.1381E-06,-0.00089398,,,0.115205361,1.376459145,-11.36269857,-29.51047946,0.00125367
0.092802039,1.554750985,2.07391E-06,-0.000938422,,,0.116333814,0.214897076,-21.04690557,-50.03286487,0.07245285
0.092802039,1.661893842,1.98481E-06,-0.000979743,,,0.116333814,0.106837177,-22.04235397,-51.90843554,0.076765527
0.092802039,1.661893842,1.98481E-06,-0.000979743,,,0.128367032,0.81932397,-15.76599485,-39.44537136,0.04165457
0.092802039,1.340465271,2.17516E-06,-0.000846438,,,0.128367032,0.569313635,-17.88740246,-43.84676352,0.059199676
0.092802039,1.340465271,2.17516E-06,-0.000846438,,,0.13050869,1.345459236,-11.5956726,-30.06747974,0.00358021
0.103404235,0.845025636,2.17276E-06,-0.000586994,,,0.13749956,2.668640079,-2.247690515,-6.00074915,-0.027177705
0.103404235,0.523597065,1.5951E-06,-0.000384707,,,0.13749956,2.454965726,-3.733728481,-9.896530752,-0.035604251
0.103404235,0.737882779,2.01673E-06,-0.000522485,,,0.139339604,1.66658874,-9.225932339,-24.27029381,-0.017885251
0.103404235,0.630739922,1.824E-06,-0.000455048,,,0.140937327,2.088349731,-6.258023091,-16.59384132,-0.036306555
0.103404235,0.845025636,2.17276E-06,-0.000586994,,,0.140937327,1.838339395,-8.001963287,-21.15109783,-0.02734545
0.103404235,0.523597065,1.5951E-06,-0.000384707,,,0.14367036,0.856653411,-15.4559183,-38.7845343,0.043601375
0.113530058,1.795868146,2.25426E-06,-0.001026984,,,0.14438776,1.101288317,-13.4816394,-34.43861886,0.023578697
0.113530058,1.795868146,2.25426E-06,-0.001026984,,,0.144831144,0.02277645,-22.82506295,-53.3628782,0.099086952
0.113530058,2.117296718,1.70683E-06,-0.001120124,,,0.144831144,0.272786785,-20.5179935,-49.02458993,0.086959883
0.113530058,2.117296718,1.70683E-06,-0.001120124,,,0.155510591,2.132882428,-5.950284704,-15.78060905,-0.041062891
0.113530058,1.903011003,2.0888E-06,-0.001061211,,,0.160665203,1.804425471,-8.24056538,-21.76761637,-0.029271998
0.113530058,2.010153861,1.90479E-06,-0.001092262,,,0.162533994,0.545704495,-18.08985652,-44.2586647,0.077005241
0.116666667,0,0,0,,,0.162742214,2.976203347,-0.040666606,-0.428558318,-0.002995708
0.116666667,0.107142857,4.33706E-07,-8.41855E-05,,,0.164320384,1.301735401,-11.92505629,-30.851699,0.008453007
0.116666667,0.321428571,1.20531E-06,-0.000244161,,,0.174539662,2.581986357,-2.855343107,-7.579044715,-0.039881509
0.116666667,0.214285714,8.36494E-07,-0.000165579,,,0.174539662,2.6922181,-2.084339713,-5.571810243,-0.032773127
0.116666667,0.321428571,1.20531E-06,-0.000244161,,,0.174539662,2.426201713,-3.932949284,-10.42176273,-0.045974503
0.119355389,3,3.12633E-07,-0.001228233,,,0.174539662,2.536433457,-3.171611768,-8.409698066,-0.042137565
0.137108387,2.347544572,1.5199E-06,-0.001169167,,,0.174892332,0.913323719,-14.98802,-37.77932059,0.047494472
0.137108387,2.347544572,1.5199E-06,-0.001169167,,,0.178998106,0.294730545,-20.31679496,-48.64011175,0.10594651
0.137108387,2.454687429,1.27013E-06,-0.001186952,,,0.181564762,2.219421368,-5.35420784,-14.19966241,-0.049340335
0.137108387,2.776116001,6.24796E-07,-0.001221174,,,0.183283429,1.164447909,-12.98219115,-33.3094852,0.023455371
0.137108387,2.561830287,1.03229E-06,-0.001201542,,,0.183283429,1.054216165,-13.8511792,-35.27577755,0.034962471
0.137108387,2.668973144,8.14391E-07,-0.001212944,,,0.18613361,1.502365843,-10.41910618,-27.23990241,-0.009754908
0.137108387,2.561830287,1.03229E-06,-0.001201542,,,0.187373473,2.888377373,-0.685919614,-2.013858074,-0.015150868
0.137108387,2.776116001,6.24796E-07,-0.001221174,,,0.198673904,2.397991623,-4.127630084,-10.93700474,-0.053028001
0.143976991,1.101203368,3.33977E-06,-0.00072918,,,0.199912254,2.71499455,-1.926004901,-5.157691945,-0.035513115
0.143976991,0.994060511,3.24428E-06,-0.000671784,,,0.203011305,1.198863334,-12.71221559,-32.69328383,0.022111301
0.143976991,1.208346226,3.38583E-06,-0.000783557,,,0.205265122,1.028863834,-14.05102994,-35.7258325,0.042218751
0.143976991,0.994060511,3.24428E-06,-0.000671784,,,0.205743428,1.743392993,-8.670978027,-22.87568904,-0.032681446
0.143976991,1.208346226,3.38583E-06,-0.000783557,,,0.207398499,0.726002097,-16.53981379,-41.08757019,0.078393091
0.160725047,0.424654366,2.10411E-06,-0.000317175,,,0.221507342,0.443909318,-18.97764558,-46.03505878,0.116355607
0.160725047,0.424654366,2.10411E-06,-0.000317175,,,0.224326673,0.400932299,-19.35900886,-46.78516919,0.122446454
0.164790535,1.301781241,3.87798E-06,-0.000828479,,,0.227707923,1.984753267,-6.972523738,-18.48327237,-0.053634122
0.175392731,0.913484463,3.8265E-06,-0.000626627,,,0.233999038,0.106837177,-22.03591956,-51.89774435,0.154894454
0.182084252,2.219640432,2.42135E-06,-0.001143721,,,0.236274919,1.558119034,-10.0046954,-26.23129722,-0.018505056
0.185604078,1.60950197,4.06842E-06,-0.000959882,,,0.236274919,1.447887291,-10.81724102,-28.22065662,-0.005751167
0.185604078,1.395216256,4.32594E-06,-0.000871068,,,0.236925033,1.262720272,-12.21541857,-31.54826066,0.017549656
0.185604078,1.502359113,4.22328E-06,-0.00091703,,,0.239616641,2.581692336,-2.86152894,-7.584423485,-0.054755606
0.185604078,1.395216256,4.32594E-06,-0.000871068,,,0.239616641,2.527616038,-3.23604035,-8.57053904,-0.05833983
0.185604078,1.60950197,4.06842E-06,-0.000959882,,,0.247496982,0.982368489,-14.41893613,-36.54958348,0.05772229
0.187909582,2.888058,6.32732E-07,-0.001226366,,,0.250705714,2.322641049,-4.64574739,-12.31344226,-0.068273484
0.20566258,2.449888287,1.91921E-06,-0.001186186,,,0.251578248,1.416887382,-11.04641019,-28.77834602,-0.002040242
0.20566258,2.664174001,1.22956E-06,-0.001212457,,,0.251620517,1.123464315,-13.29483234,-34.03754351,0.03837406
0.20566258,2.449888287,1.91921E-06,-0.001186186,,,0.256514425,2.775477255,-1.504526561,-4.05914618,-0.037928112
0.20566258,2.557031144,1.55975E-06,-0.001200916,,,0.257916721,1.356955003,-11.49560985,-29.85603614,0.006044159
0.20566258,2.664174001,1.22956E-06,-0.001212457,,,0.260409162,1.598238294,-9.709654797,-25.50500751,-0.025117512
0.20566258,2.557031144,1.55975E-06,-0.001200916,,,0.263268217,0.693284098,-16.8095762,-41.65887408,0.104531539
0.206332097,1.743476274,4.23582E-06,-0.001009042,,,0.263268217,0.803515841,-15.88251917,-39.71574335,0.088372695
0.206808471,0.832908415,4.32252E-06,-0.000579787,,,0.263375717,0.519420068,-18.30823547,-44.71028903,0.128782488
0.206808471,0.832908415,4.32252E-06,-0.000579787,,,0.268266639,2.494127561,-3.468809473,-9.181610942,-0.067367194
0.206808471,0.725765558,4.00164E-06,-0.000514949,,,0.269736697,2.608730485,-2.676215369,-7.091699191,-0.059283864
0.206808471,0.6186227,3.60729E-06,-0.000447186,,,0.275039673,1.164319207,-12.9713152,-33.30660206,0.035717483
0.206808471,0.6186227,3.60729E-06,-0.000447186,,,0.27660031,0.317828365,-20.0986028,-48.22771026,0.161530873
0.215965487,1.062519338,4.97437E-06,-0.000708753,,,0.277715202,1.093368312,-13.5281438,-34.57241231,0.047281882
0.215965487,1.062519338,4.97437E-06,-0.000708753,,,0.278571546,0.840845282,-15.57030168,-39.05480442,0.087730128
0.215965487,1.169662196,5.07004E-06,-0.000764222,,,0.27918161,0.901102786,-15.07436313,-37.98845497,0.078334588
0.215965487,1.169662196,5.07004E-06,-0.000764222,,,0.289048663,2.055003595,-6.482659643,-17.20116067,-0.072271055
0.227060116,1.984593435,3.90612E-06,-0.001085081,,,0.289048663,1.944771852,-7.246476,-19.21104888,-0.064863585
0.227060116,1.877450578,4.26777E-06,-0.001053269,,,0.29606653,2.19364217,-5.52926607,-14.66999365,-0.079645777
0.227060116,2.091736293,3.51401E-06,-0.001113706,,,0.2970345,0.133008193,-21.78767858,-51.43540067,0.194623951
0.227060116,1.877450578,4.26777E-06,-0.001053269,,,0.2970345,0.02277645,-22.81653966,-53.34452885,0.204249182
0.227060116,2.091736293,3.51401E-06,-0.001113706,,,0.29743518,0.669674958,-17.00527639,-42.07058155,0.122163301
0.233333333,0,0,0,,,0.298488791,1.255192768,-12.26409892,-31.67944159,0.023776348
0.233333333,0.214285714,1.67791E-06,-0.000165548,,,0.299339765,1.690552696,-9.039010579,-23.83177523,-0.040648818
0.233333333,0.107142857,8.70067E-07,-8.41689E-05,,,0.303621927,2.099536292,-6.175038248,-16.38827722,-0.078227526
0.233333333,0.214285714,1.67791E-06,-0.000165548,,,0.307750431,2.888377373,-0.705570165,-2.01388842,-0.024911815
0.23677903,1.263097211,5.58797E-06,-0.0008101,,,0.308776539,1.910857927,-7.481246236,-19.82837372,-0.066206689
0.238710778,3,6.00883E-07,-0.00122812,,,0.311650461,1.016397278,-14.13503689,-35.93968481,0.067073391
0.247381227,0.98194329,5.56399E-06,-0.000665025,,,0.313296386,2.52035863,-3.291062303,-8.70291723,-0.076768892
0.250638445,2.321984147,2.88756E-06,-0.001164381,,,0.314766443,2.580885257,-2.873476831,-7.599142399,-0.071974486
0.256463776,2.776116001,1.14942E-06,-0.001221076,,,0.315476989,2.371694301,-4.310922051,-11.41710943,-0.084820924
0.257592574,1.356532226,6.0475E-06,-0.000853651,,,0.316359396,1.15882163,-13.00732512,-33.40172312,0.042404204
0.264129283,0.519680002,4.06697E-06,-0.000381995,,,0.318453277,2.976203347,-0.069206627,-0.428563451,-0.005879273
0.274216773,2.552232002,2.09291E-06,-0.001200266,,,0.319034925,1.114908884,-13.35119193,-34.18511005,0.050740334
0.274216773,2.552232002,2.09291E-06,-0.001200266,,,0.320245196,1.825673694,-8.077111922,-21.37798972,-0.059879692
0.274216773,2.552232002,2.09291E-06,-0.001200266,,,0.322708612,2.71499455,-1.940660463,-5.157737408,-0.057333679
0.274216773,2.552232002,2.09291E-06,-0.001200266,,,0.324369843,1.504122889,-10.38886429,-27.20255561,-0.016322782
0.274216773,2.552232002,2.09291E-06,-0.001200266,,,0.325642143,1.377088106,-11.3335123,-29.49028275,0.004719529
0.274216773,2.552232002,2.09291E-06,-0.001200266,,,0.331201462,0.154951953,-21.58092543,-51.0494577,0.214895543
0.277391714,0.317511509,2.84757E-06,-0.000241272,,,0.333295781,1.250561708,-12.29360202,-31.75988051,0.027722624
0.278406117,1.449967241,6.43619E-06,-0.000894859,,,0.342536576,1.467322591,-10.65750021,-27.86507838,-0.010801043
0.278406117,1.557110098,6.24047E-06,-0.000939236,,,0.346457452,1.034542668,-13.98328361,-35.61375511,0.071297982
0.278406117,1.557110098,6.24047E-06,-0.000939236,,,0.352635441,0.91127775,-14.97788264,-37.80083181,0.097583254
0.278406117,1.449967241,6.43619E-06,-0.000894859,,,0.353019841,1.551748859,-10.03498468,-26.34126953,-0.025601865
0.278796966,0.901367242,6.06441E-06,-0.000619604,,,0.353409236,2.393790882,-4.161110913,-11.0134265,-0.0941784
0.287953982,1.130978165,6.73993E-06,-0.000744471,,,0.360449134,1.372457047,-11.3620105,-29.5711453,0.006476095
0.287953982,1.130978165,6.73993E-06,-0.000744471,,,0.360640859,2.691538231,-2.11055773,-5.584278672,-0.067820672
0.287953982,1.130978165,6.73993E-06,-0.000744471,,,0.361427571,0.787751532,-15.99676642,-39.98336474,0.125481776
0.287953982,1.130978165,6.73993E-06,-0.000744471,,,0.367664995,0.615259034,-17.45918353,-43.01731788,0.162488894
0.287953982,1.130978165,6.73993E-06,-0.000744471,,,0.374152511,2.204830536,-5.450745057,-14.46497085,-0.10059643
0.29561431,2.194080007,4.06442E-06,-0.001138006,,,0.377212246,1.682172715,-9.08802251,-23.98050293,-0.049151924
0.299134136,1.691084402,6.33354E-06,-0.000990311,,,0.379594304,0.83206568,-15.62413544,-39.19871821,0.122501104
0.307264971,2.888058,9.98342E-07,-0.001226225,,,0.383856299,1.461825014,-10.69066086,-27.96150995,-0.010555312
0.308767526,1.22441318,7.29906E-06,-0.000791299,,,0.387442432,0.92942314,-14.82247663,-37.47524524,0.103614414
0.308767526,1.22441318,7.29906E-06,-0.000791299,,,0.388983861,2.861034104,-0.920098646,-2.508557443,-0.038359826
0.310212706,0.820791194,6.45618E-06,-0.000572501,,,0.394265533,0.209768466,-21.06723039,-50.08690368,0.248851982
0.310212706,0.713648336,5.96104E-06,-0.000507337,,,0.396820237,2.026477949,-6.671763216,-17.71968806,-0.096128552
0.310212706,0.713648336,5.96104E-06,-0.000507337,,,0.4001937,1.240997425,-12.35352716,-31.92535997,0.036263758
0.310212706,0.820791194,6.45618E-06,-0.000572501,,,0.401987511,0.759724888,-16.22289222,-40.47200076,0.146394618
0.319192638,2.424327862,3.10828E-06,-0.0011821,,,0.404254024,1.856955618,-7.847286261,-20.80659703,-0.078995112
0.319192638,2.424327862,3.10828E-06,-0.0011821,,,0.405399353,1.548203965,-10.05139596,-26.40219757,-0.028045988
0.319369722,1.050402117,7.3576E-06,-0.000702179,,,0.406274543,1.171819221,-12.88760338,-33.16135994,0.052634803
0.319369722,1.050402117,7.3576E-06,-0.000702179,,,0.407783586,0.027038149,-22.76643163,-53.24934102,0.281539351
0.319862155,1.825058706,6.25687E-06,-0.001036467,,,0.40852836,1.134827914,-13.176173,-33.82124134,0.061512425
0.321450094,0.420737304,4.19798E-06,-0.000314353,,,0.410765648,1.067482819,-13.70701174,-35.02077981,0.077651074
0.321450094,0.420737304,4.19798E-06,-0.000314353,,,0.412084758,2.226927116,-5.299015727,-14.06100605,-0.111162065
0.325017969,2.664174001,1.91824E-06,-0.001212335,,,0.414120303,2.079343155,-6.30705785,-16.75512084,-0.104488012
0.325017969,2.664174001,1.91824E-06,-0.001212335,,,0.418069078,1.495080418,-10.43830006,-27.3597985,-0.01795842
0.329581069,1.317848195,7.78508E-06,-0.000835808,,,0.42018778,2.527029567,-3.254667475,-8.581170677,-0.102104495
0.329581069,1.317848195,7.78508E-06,-0.000835808,,,0.420239394,1.986218394,-6.94710423,-18.45296511,-0.097656084
0.340590175,1.95903301,6.00894E-06,-0.00107767,,,0.420914027,0.853606253,-15.43653649,-38.81248065,0.131279044
0.340590175,1.95903301,6.00894E-06,-0.00107767,,,0.421185388,1.335232156,-11.63008297,-30.23471206,0.01679587
0.340590175,2.066175867,5.42568E-06,-0.001107059,,,0.421335804,1.67918656,-9.102000965,-24.03243822,-0.053790922
0.340590175,2.066175867,5.42568E-06,-0.001107059,,,0.42142613,2.578016107,-2.905102559,-7.651449949,-0.096599662
0.35,0.107142857,1.31159E-06,-8.4141E-05,,,0.425476419,0.515469479,-18.31462799,-44.75600742,0.210873813
0.35,0.107142857,1.31159E-06,-8.4141E-05,,,0.426916109,2.837577785,-1.096605599,-2.93325787,-0.048261889
0.35,0,0,0,,,0.428633979,2.426289172,-3.943001419,-10.41976455,-0.112299663
0.350394613,1.41128321,8.18563E-06,-0.000877982,,,0.43118927,0.438799118,-18.99008801,-46.09437492,0.230086286
0.350394613,1.41128321,8.18563E-06,-0.000877982,,,0.4340086,0.395822099,-19.37258115,-46.8433611,0.240420029
0.350785462,0.969826069,7.88347E-06,-0.000658184,,,0.43444269,2.665451026,-2.304020157,-6.058934906,-0.086368727
0.350785462,0.969826069,7.88347E-06,-0.000658184,,,0.434481511,2.971750758,-0.134968369,-0.508796001,-0.009525627
0.358066167,3,8.40263E-07,-0.001227924,,,0.438701012,0.313877777,-20.10944998,-48.26915325,0.259156551
0.364168503,2.296423722,4.35616E-06,-0.001159366,,,0.442450277,0.986217115,-14.34928413,-36.46095392,0.104778399
0.364168503,2.296423722,4.35616E-06,-0.001159366,,,0.448343526,0.053087804,-22.51653546,-52.78921832,0.307176184
0.367533518,0.614705638,6.4203E-06,-0.000444502,,,0.448377582,1.853969463,-7.861903137,-20.85921965,-0.086610231
0.371208156,1.504718225,8.48994E-06,-0.000917804,,,0.454841485,1.389843269,-11.21129057,-29.25098252,0.005528594
0.371208156,1.504718225,8.48994E-06,-0.000917804,,,0.458510097,0.784665652,-16.00019816,-40.02354598,0.161508196
0.371208156,1.504718225,8.48994E-06,-0.000917804,,,0.459150049,2.105574224,-6.124301752,-16.27575684,-0.117425758
0.371208156,1.504718225,8.48994E-06,-0.000917804,,,0.459269881,0.834232868,-15.58724093,-39.14886982,0.148946923
0.371208156,1.504718225,8.48994E-06,-0.000917804,,,0.462793866,0.665644968,-17.00554964,-42.11720823,0.193527522
0.371208156,1.504718225,8.48994E-06,-0.000917804,,,0.472618906,1.9826735,-6.965771246,-18.5161425,-0.108754475
0.375819165,2.776116001,1.63895E-06,-0.001220911,,,0.473994795,2.297290293,-4.820351028,-12.77531158,-0.128228593
0.375819165,2.776116001,1.63895E-06,-0.001220911,,,0.479511257,2.94390553,-0.351966392,-1.010929209,-0.02044361
0.379701295,1.147877195,8.9418E-06,-0.000752989,,,0.481834783,0.946809362,-14.65758956,-37.15400653,0.125754883
0.379701295,1.147877195,8.9418E-06,-0.000752989,,,0.483661714,1.417857023,-10.99502776,-28.74471135,-0.000616394
0.382201202,0.889250021,8.29766E-06,-0.000612499,,,0.485678696,2.778351143,-1.529193841,-4.007117634,-0.071163048
0.382201202,0.889250021,8.29766E-06,-0.000612499,,,0.492726283,1.258041094,-12.19981853,-31.61047049,0.041795574
0.38409993,2.553832966,2.89856E-06,-0.00120033,,,0.496560149,0.150921964,-21.59464536,-51.08370696,0.326046747
0.38409993,2.553832966,2.89856E-06,-0.00120033,,,0.503298231,1.084526488,-13.54775918,-34.70534534,0.092103474
0.391936175,1.63869253,8.53874E-06,-0.000970787,,,0.504269881,2.080417205,-6.292278168,-16.73361532,-0.126261274
0.391936175,1.63869253,8.53874E-06,-0.000970787,,,0.506309523,1.676545581,-9.104101656,-24.07516769,-0.062506321
0.39405838,0.210368652,2.80561E-06,-0.000162546,,,0.507226606,0.026049655,-22.76374008,-53.24091975,0.352692726
0.400514838,1.24131221,9.50874E-06,-0.000799391,,,0.510407476,0.686654618,-16.81368736,-41.73904746,0.208581172
0.409144368,2.168519582,5.8146E-06,-0.001132057,,,0.511619647,2.023603092,-6.68004133,-17.76922246,-0.122128254
0.409144368,2.168519582,5.8146E-06,-0.001132057,,,0.514145064,0.930489571,-14.78108876,-37.43780978,0.139710925
0.411117035,1.067301147,9.55001E-06,-0.000711043,,,0.518078584,1.580799973,-9.789889132,-25.80541957,-0.041531331
0.412664194,1.772666834,8.37929E-06,-0.001018866,,,0.520331573,2.972154771,-0.163200005,-0.501524248,-0.011273001
0.412664194,1.772666834,8.37929E-06,-0.001018866,,,0.525135803,2.228574236,-5.284817036,-14.02956172,-0.140641223
0.413616942,0.808673972,8.5803E-06,-0.000565136,,,0.525968104,1.193865698,-12.68492408,-32.75323973,0.064209431
0.413616942,0.808673972,8.5803E-06,-0.000565136,,,0.527214955,1.811666579,-8.144579063,-21.62412148,-0.092683146
0.413616942,0.808673972,8.5803E-06,-0.000565136,,,0.528221921,1.156874391,-12.97194512,-33.41295676,0.075542029
0.413616942,0.808673972,8.5803E-06,-0.000565136,,,0.528751333,1.536049653,-10.11250681,-26.61207524,-0.030930886
0.413616942,0.808673972,8.5803E-06,-0.000565136,,,0.537574608,0.536564305,-18.10239155,-44.36392069,0.263060325
0.413616942,0.808673972,8.5803E-06,-0.000565136,,,0.539457633,2.427903839,-3.939248506,-10.38987233,-0.140637548
0.421328382,1.334747225,9.97796E-06,-0.00084347,,,0.539967153,2.839224905,-1.117805108,-2.903499266,-0.060595629
0.42485433,0.51576294,6.55097E-06,-0.000379199,,,0.545266344,2.667065693,-2.314445067,-6.02958312,-0.107977488
0.42662036,2.888058,1.31146E-06,-0.001226006,,,0.546162195,0.128145514,-21.79815645,-51.46429142,0.364157412
0.42662036,2.888058,1.31146E-06,-0.001226006,,,0.547381693,1.289994407,-11.9401662,-31.03171713,0.03820844
0.429075795,2.425928826,4.15135E-06,-0.001182206,,,0.554038721,0.285590356,-20.34247478,-48.73283025,0.336704162
0.433392214,1.906641138,8.01226E-06,-0.001062005,,,0.556372035,1.466635881,-10.61417475,-27.85988931,-0.012766675
0.433392214,1.906641138,8.01226E-06,-0.001062005,,,0.560543364,1.073975367,-13.61392499,-34.88406818,0.107459863
0.434901126,2.665774966,2.51275E-06,-0.00121231,,,0.563143937,2.207382416,-5.426684771,-14.41582415,-0.149542178
0.438116761,0.313594447,4.4837E-06,-0.000238325,,,0.563541368,2.529118186,-3.257444787,-8.542900306,-0.13622529
0.442141925,1.42818224,1.03381E-05,-0.000885212,,,0.564779718,2.580104726,-2.911873567,-7.613312486,-0.128785906
0.442141925,1.42818224,1.03381E-05,-0.000885212,,,0.566445962,1.893419606,-7.568228284,-20.13682723,-0.114305727
0.442532774,0.986725098,1.00514E-05,-0.000667392,,,0.574353452,2.863021557,-0.962104195,-2.472625616,-0.056072739
0.454120233,2.040615442,7.44757E-06,-0.001100174,,,0.575485542,0.792365528,-15.90185105,-39.86558138,0.20316264
0.454120233,2.040615442,7.44757E-06,-0.001100174,,,0.57612557,0.834120058,-15.55391415,-39.12928426,0.189835812
0.454120233,2.040615442,7.44757E-06,-0.001100174,,,0.576201923,1.318008161,-11.71869499,-30.52619639,0.032271793
0.454120233,2.040615442,7.44757E-06,-0.001100174,,,0.585188218,0.557573955,-17.90498824,-43.98489122,0.281340449
0.454120233,2.040615442,7.44757E-06,-0.001100174,,,0.587874995,0.438860464,-18.95120956,-46.05699131,0.317578893
0.454120233,2.040615442,7.44757E-06,-0.001100174,,,0.591005489,0.713808707,-16.55848327,-41.24439292,0.234905339
0.454120233,2.040615442,7.44757E-06,-0.001100174,,,0.59122185,0.38784202,-19.40683364,-46.9447269,0.333706386
0.466666667,0,0,0,,,0.592853645,1.057655577,-13.73280051,-35.16847124,0.120153209
0.466666667,0,0,0,,,0.59400766,0.9096661,-14.92572393,-37.7912522,0.170741293
0.466666667,0,0,0,,,0.599299484,1.927897958,-7.324426502,-19.50821691,-0.126425615
0.470937753,0.709731274,9.08936E-06,-0.000504672,,,0.603640767,0.262813906,-20.53896199,-49.11366429,0.374033033
0.470937753,0.709731274,9.08936E-06,-0.000504672,,,0.609813869,2.39752662,-4.148373411,-10.94396201,-0.160569339
0.471448607,1.164776225,1.11768E-05,-0.000761391,,,0.613889675,1.213624031,-12.50407819,-32.38722231,0.070889197
0.471448607,1.164776225,1.11768E-05,-0.000761391,,,0.616565204,1.169711285,-12.84337166,-33.1700907,0.086484716
0.473948514,0.90614905,1.04256E-05,-0.00062205,,,0.617045492,2.695273969,-2.13840149,-5.516448186,-0.114939496
0.473948514,0.90614905,1.04256E-05,-0.00062205,,,0.62086375,0.02194376,-22.78565382,-53.27524168,0.436416378
0.47405166,2.298024687,5.65465E-06,-0.001159511,,,0.622051657,1.715218457,-8.801995789,-23.36634154,-0.083645126
0.477421556,3,1.00618E-06,-0.001227636,,,0.626933162,0.10293129,-22.01892625,-51.87443057,0.425981652
0.477421556,3,1.00618E-06,-0.001227636,,,0.627722621,2.976543681,-0.178740815,-0.422429566,-0.011506098
0.477421556,3,1.00618E-06,-0.001227636,,,0.62791293,1.38944482,-11.16503012,-29.23827513,0.012954289
0.482175141,0.416820242,6.30208E-06,-0.000311457,,,0.634041791,2.103172723,-6.124847273,-16.31508006,-0.158843706
0.482175141,0.416820242,6.30208E-06,-0.000311457,,,0.640233102,2.055313538,-6.447999417,-17.1870214,-0.15448214
0.485702321,2.777716965,2.03491E-06,-0.001220788,,,0.644397582,0.463801227,-18.71242505,-45.60606248,0.342178703
0.485968054,1.543062906,1.10417E-05,-0.00093327,,,0.646974029,2.88997377,-0.801289883,-1.985092474,-0.051985224
0.485968054,1.543062906,1.10417E-05,-0.00093327,,,0.647822003,2.3763348,-4.29222665,-11.33043721,-0.171360258
0.49226215,1.25821124,1.17441E-05,-0.000807364,,,0.648102454,1.246879435,-12.23635141,-31.78765788,0.064114124
0.493983087,2.555433931,3.67512E-06,-0.001200333,,,0.648816913,0.614019153,-17.39398125,-42.98009469,0.294839365
0.493983087,2.555433931,3.67512E-06,-0.001200333,,,0.65010493,0.360803871,-19.63388735,-47.39741386,0.376983618
0.502864347,1.084200176,1.17848E-05,-0.000719789,,,0.65143179,2.719070622,-1.985430539,-5.083862381,-0.114487181
0.506696073,1.677037211,1.08995E-05,-0.000984847,,,0.652279021,2.197886116,-5.485887393,-14.58727635,-0.171183302
0.510725047,0.103225795,1.86466E-06,-8.10579E-05,,,0.654855614,1.007975472,-14.10749987,-36.03782,0.153562544
0.510725047,0.103225795,1.86466E-06,-8.10579E-05,,,0.654921057,1.1503379,-12.98061354,-33.50831814,0.100457292
0.513075694,1.351646255,1.21891E-05,-0.000851012,,,0.667794369,1.630824451,-9.389246544,-24.88794106,-0.063865123
0.513075694,1.351646255,1.21891E-05,-0.000851012,,,0.669639972,2.525550449,-3.29684825,-8.607658868,-0.161851567
0.519027525,2.170120547,7.37626E-06,-0.001132234,,,0.67111003,2.586077076,-2.891064372,-7.504356376,-0.151457873
0.519027525,2.170120547,7.37626E-06,-0.001132234,,,0.671368641,0.2070406,-21.03640886,-50.05779322,0.433356304
0.527424092,1.811011515,1.05037E-05,-0.00103151,,,0.672114169,1.505308757,-10.29480291,-27.15019131,-0.024220278
0.528258565,0.610788576,9.27035E-06,-0.000441721,,,0.678467117,1.586074131,-9.707034109,-25.69435223,-0.050556533
0.528258565,0.610788576,9.27035E-06,-0.000441721,,,0.681320514,1.973393702,-6.998203105,-18.6764996,-0.150090584
0.534192219,0.812479979,1.11863E-05,-0.000567182,,,0.689119968,1.768661181,-8.408664501,-22.39278297,-0.104961442
0.534192219,0.812479979,1.11863E-05,-0.000567182,,,0.690720975,0.439049647,-18.9178739,-46.02274317,0.376839042
0.534280087,1.003624128,1.22709E-05,-0.000676482,,,0.693081469,0.387070734,-19.38353354,-46.92651021,0.395241925
0.534280087,1.003624128,1.22709E-05,-0.000676482,,,0.694270302,1.357458304,-11.38108381,-29.80168507,0.02883528
0.536503517,2.889658965,1.52734E-06,-0.001225772,,,0.696017217,1.231767447,-12.33441555,-32.04878669,0.076708743
0.536503517,2.889658965,1.52734E-06,-0.001225772,,,0.700160291,1.179138658,-12.73914929,-32.98639922,0.097955767
0.538958952,2.427529791,5.17491E-06,-0.00118225,,,0.706561676,2.77868832,-1.596275134,-4.00111549,-0.103518127
0.544784283,2.66737593,3.06371E-06,-0.001212217,,,0.709239632,0.561489688,-17.8292277,-43.88088815,0.344223275
0.548152111,1.944985819,9.86348E-06,-0.001073223,,,0.711930345,2.614326317,-2.710228272,-6.989687071,-0.154192273
0.548152111,1.944985819,9.86348E-06,-0.001073223,,,0.712612777,0.71764729,-16.48228711,-41.14487995,0.286438636
0.554783428,0.20645159,3.9228E-06,-0.000159502,,,0.714759804,2.50039343,-3.471557245,-9.066295561,-0.176274315
0.554783428,0.20645159,3.9228E-06,-0.000159502,,,0.715614948,0.913504682,-14.84891707,-37.6951107,0.209044536
0.556901822,1.466526921,1.29926E-05,-0.000901424,,,0.716905059,1.061571309,-13.65529543,-35.07325499,0.148854184
0.563195919,1.181675254,1.34487E-05,-0.000769671,,,0.717741858,2.328499663,-4.613135202,-12.20258626,-0.190497222
0.563195919,1.181675254,1.34487E-05,-0.000769671,,,0.721973491,1.803139533,-8.159627029,-21.76522423,-0.11810776
0.583333333,0,0,0,,,0.723670888,0.262813906,-20.50636027,-49.07242822,0.453405426
0.583934817,2.299625651,6.94486E-06,-0.001159589,,,0.732788071,0.797330844,-15.80259607,-39.73847265,0.263004143
0.583934817,2.299625651,6.94486E-06,-0.001159589,,,0.733428099,0.839085374,-15.45450183,-39.00310661,0.246037424
0.584009463,1.275110269,1.40089E-05,-0.000815213,,,0.734632836,1.344728238,-11.46123086,-30.02263038,0.037444744
0.584009463,1.275110269,1.40089E-05,-0.000815213,,,0.744598386,0.10293129,-21.99286239,-51.82894428,0.511596697
0.585579377,0.511845878,9.06982E-06,-0.000376314,,,0.748261625,0.540639402,-17.99732639,-44.2320498,0.372945702
0.585579377,0.511845878,9.06982E-06,-0.000376314,,,0.751445878,1.507331644,-10.25212376,-27.10252205,-0.024057648
0.587938697,2.068830992,9.40786E-06,-0.001107303,,,0.755013775,1.085832548,-13.44715896,-34.63352918,0.148217308
0.587938697,2.068830992,9.40786E-06,-0.001107303,,,0.755378594,2.589442238,-2.88641327,-7.442838783,-0.169285181
0.588377188,3,1.07295E-06,-0.001227271,,,0.758879337,2.88997377,-0.853417824,-1.985153113,-0.06111054
0.59151303,0.713537281,1.15438E-05,-0.000506796,,,0.759678111,2.536035977,-3.24205749,-8.416126935,-0.181057682
0.594523791,0.909955057,1.32023E-05,-0.000623952,,,0.75987355,0.284940639,-20.29156936,-48.67481158,0.470826258
0.594611659,1.101099206,1.40658E-05,-0.000728414,,,0.76558623,2.719070622,-2.022023633,-5.083831365,-0.13444013
0.594611659,1.101099206,1.40658E-05,-0.000728414,,,0.772475361,2.976543681,-0.256764427,-0.422440669,-0.014237198
0.595585478,2.77931793,2.36964E-06,-0.001220585,,,0.773067106,0.02194376,-22.75698743,-53.21285386,0.551608099
0.595585478,2.77931793,2.36964E-06,-0.001220585,,,0.776157216,1.87694558,-7.63624075,-20.4221891,-0.144759647
0.598841808,0.309677385,6.1288E-06,-0.000235316,,,0.777557877,1.672553151,-9.057480007,-24.12167575,-0.083522788
0.598841808,0.309677385,6.1288E-06,-0.000235316,,,0.785498401,2.405363793,-4.10805014,-10.79915154,-0.203779014
0.600727951,1.581407587,1.35533E-05,-0.000948263,,,0.787242845,2.226343165,-5.288142106,-14.06453038,-0.205140171
0.600727951,1.581407587,1.35533E-05,-0.000948263,,,0.790227602,1.619429605,-9.430094542,-25.07842367,-0.065452195
0.603866244,2.557034895,4.41584E-06,-0.001200264,,,0.791761419,0.695535667,-16.63794873,-41.50757994,0.331765332
0.603866244,2.557034895,4.41584E-06,-0.001200264,,,0.791808412,1.494601577,-10.32935564,-27.32479134,-0.018110537
0.62145597,1.715381892,1.31899E-05,-0.00099843,,,0.795499007,0.93937062,-14.60356267,-37.2160534,0.224823099
0.627391714,0.103225795,2.31208E-06,-8.10028E-05,,,0.802186253,2.698108722,-2.175233426,-5.464912289,-0.148159956
0.627835591,1.389990935,1.49473E-05,-0.000867962,,,0.808621385,2.139982735,-5.858153011,-15.63759037,-0.20197332
0.642183989,1.849356196,1.25295E-05,-0.001043672,,,0.811907998,1.243668079,-12.19470495,-31.81187233,0.090601939
0.642183989,1.849356196,1.25295E-05,-0.001043672,,,0.813065904,0.435814031,-18.90253184,-46.03409642,0.450999521
0.642900189,0.41290318,8.43524E-06,-0.000308483,,,0.814812696,2.09212355,-6.175444511,-16.5087821,-0.196642808
0.642900189,0.41290318,8.43524E-06,-0.000308483,,,0.815054341,0.392027931,-19.29603436,-46.79430678,0.469141816
0.642900189,0.41290318,8.43524E-06,-0.000308483,,,0.815398049,1.199334534,-12.53385805,-32.60082306,0.111328217
0.642900189,0.41290318,8.43524E-06,-0.000308483,,,0.816284338,2.001850751,-6.779196399,-18.1508337,-0.180502881
0.642900189,0.41290318,8.43524E-06,-0.000308483,,,0.816558618,1.713482744,-8.756148749,-23.37750252,-0.09982759
0.642900189,0.41290318,8.43524E-06,-0.000308483,,,0.817240902,1.329732074,-11.53944927,-30.27436259,0.053051607
0.64745915,2.889658965,1.67256E-06,-0.001225392,,,0.818395672,0.128145514,-21.7352151,-51.36069454,0.559764655
0.648833842,0.614594583,1.15353E-05,-0.00044393,,,0.823336773,2.435388433,-3.914158633,-10.2509474,-0.210265883
0.648842109,2.429130756,6.17551E-06,-0.001182218,,,0.830783412,0.674685382,-16.79913542,-41.85894341,0.359699427
0.648842109,2.429130756,6.17551E-06,-0.001182218,,,0.831856829,0.516217009,-18.17890283,-44.62674682,0.429425211
0.652845989,2.198336097,8.97349E-06,-0.001138294,,,0.833260631,2.863021557,-1.076824481,-2.472755291,-0.081684553
0.65466744,2.668976895,3.56121E-06,-0.00121204,,,0.833607724,0.96363186,-14.38894165,-36.77593567,0.226343236
0.65466744,2.668976895,3.56121E-06,-0.00121204,,,0.833611639,1.121777332,-13.1288012,-33.97496519,0.151340288
0.654767495,0.816285985,1.38625E-05,-0.00056915,,,0.838142364,1.604317616,-9.519923616,-25.3435769,-0.060707716
0.654767495,0.816285985,1.38625E-05,-0.00056915,,,0.841183964,0.310830159,-20.02589951,-48.19162593,0.516481071
0.654855363,1.007430134,1.51851E-05,-0.000678238,,,0.8495275,0.797008271,-15.75360525,-39.70646773,0.31168556
0.654943231,1.198574284,1.57612E-05,-0.000777824,,,0.850287284,0.846575487,-15.34017886,-38.83453698,0.288355917
0.654943231,1.198574284,1.57612E-05,-0.000777824,,,0.854598334,0.150272247,-21.51566893,-50.96145623,0.58023311
0.654943231,1.198574284,1.57612E-05,-0.000777824,,,0.859649888,1.832168526,-7.919327663,-21.22560371,-0.142467993
0.654943231,1.198574284,1.57612E-05,-0.000777824,,,0.861442141,1.44559601,-10.65877248,-28.1911185,0.006234254
0.654943231,1.198574284,1.57612E-05,-0.000777824,,,0.86516584,2.596658899,-2.865317997,-7.311014549,-0.191166613
0.654943231,1.198574284,1.57612E-05,-0.000777824,,,0.868787676,2.551670426,-3.160629614,-8.130551357,-0.202597851
0.671450094,0.20645159,4.79373E-06,-0.00015939,,,0.869860654,2.842059657,-1.238089275,-2.852243326,-0.09652086
0.67166172,1.504871602,1.56282E-05,-0.000917158,,,0.875044017,1.697417683,-8.847696945,-23.65947922,-0.097346805
0.681970575,1.973201369,1.20474E-05,-0.001081018,,,0.875399929,2.27322142,-4.975698195,-13.20707266,-0.227754467
0.69876936,1.31345495,1.68709E-05,-0.000832893,,,0.878240893,2.680362626,-2.319234887,-5.787539331,-0.16836535
0.69876936,1.31345495,1.68709E-05,-0.000832893,,,0.880153125,2.972154771,-0.355894957,-0.50151954,-0.019284149
0.699332821,3,1.03477E-06,-0.001226797,,,0.883958038,1.641376102,-9.238661662,-24.66859273,-0.075922254
0.7,0,0,0,,,0.885568652,0.026049655,-22.69147512,-53.08554085,0.638949067
0.706154654,0.515651884,1.11056E-05,-0.000378617,,,0.894370972,1.027306542,-13.84680816,-35.63089064,0.21457632
0.706154654,0.515651884,1.11056E-05,-0.000378617,,,0.895229785,2.469335823,-3.701319516,-9.631024936,-0.223130184
0.706541111,2.77931793,2.64729E-06,-0.001220185,,,0.895526518,0.875376245,-15.07975059,-38.31154186,0.292183114
0.712088307,0.717343287,1.40735E-05,-0.000508844,,,0.895652693,0.619845146,-17.24235707,-42.79235916,0.418235897
0.713749401,2.55863586,5.11402E-06,-0.001200106,,,0.895850893,0.772256691,-15.93897777,-40.12389979,0.344086086
0.713749401,2.55863586,5.11402E-06,-0.001200106,,,0.908916936,1.818635608,-7.996168048,-21.46469081,-0.142952858
0.713749401,2.55863586,5.11402E-06,-0.001200106,,,0.911555476,1.993736962,-6.812070127,-18.29083871,-0.194574449
0.713749401,2.55863586,5.11402E-06,-0.001200106,,,0.913238302,2.30324606,-4.779256167,-12.65862411,-0.237140086
0.713749401,2.55863586,5.11402E-06,-0.001200106,,,0.914173192,1.511734049,-10.15293012,-26.99400017,-0.019961066
0.713749401,2.55863586,5.11402E-06,-0.001200106,,,0.914413708,0.206720848,-20.96500322,-49.95667461,0.605776338
0.715099068,0.913761063,1.60551E-05,-0.000625768,,,0.923601374,2.947270692,-0.556417909,-0.950251666,-0.037568854
0.715186936,1.104905212,1.70839E-05,-0.000730017,,,0.928545191,0.052316518,-22.42707281,-52.60972229,0.666248281
0.715186936,1.104905212,1.70839E-05,-0.000730017,,,0.930558554,2.791648077,-1.606279545,-3.76602001,-0.129931785
0.715487849,1.619752268,1.60193E-05,-0.00096277,,,0.937194787,1.346526992,-11.35689603,-29.94543971,0.061587014
0.715487849,1.619752268,1.60193E-05,-0.00096277,,,0.938234038,2.171918309,-5.631675264,-15.04962415,-0.232987646
0.715508475,0.309677385,7.39602E-06,-0.000235145,,,0.941616527,0.852858456,-15.24203186,-38.69007093,0.322596785
0.715508475,0.309677385,7.39602E-06,-0.000235145,,,0.942700686,0.799306118,-15.68776918,-39.63037593,0.351309826
0.717753281,2.327841201,8.15245E-06,-0.001164562,,,0.945583804,2.115104197,-6.002133316,-16.08277583,-0.22586159
0.721757161,2.097046542,1.12563E-05,-0.001114093,,,0.952767491,1.54295145,-9.91018777,-26.4255288,-0.032248491
0.721757161,2.097046542,1.12563E-05,-0.001114093,,,0.953565523,1.138572251,-12.93691391,-33.64066066,0.173437713
0.736215868,1.753726572,1.54036E-05,-0.001011519,,,0.955972504,0.980764332,-14.1881833,-36.43154278,0.25950075
0.736215868,1.753726572,1.54036E-05,-0.001011519,,,0.959180164,0.5170851,-18.11354889,-44.55499138,0.503571348
0.742595489,1.428335616,1.77089E-05,-0.000884426,,,0.960665757,0.67557092,-16.72862854,-41.79009192,0.424671757
0.742595489,1.428335616,1.77089E-05,-0.000884426,,,0.960822523,1.980204044,-6.889534633,-18.53178347,-0.198380661
0.74405838,0.103225795,2.77235E-06,-8.09346E-05,,,0.962721784,2.975115921,-0.394264126,-0.448174261,-0.018952821
0.758414782,2.889658965,1.72173E-06,-0.001224901,,,0.964730772,2.367179325,-4.366967204,-11.49182694,-0.248066053
0.765623072,2.668976895,4.01906E-06,-0.001211612,,,0.967071803,1.26539279,-11.95291766,-31.38316194,0.108782112
0.765623072,2.668976895,4.01906E-06,-0.001211612,,,0.968507298,0.31169825,-19.96758146,-48.11361071,0.603534474
0.769143004,0.413763904,1.02221E-05,-0.000308829,,,0.970561855,1.221059245,-12.28950189,-32.17064177,0.133238956
0.769143004,0.413763904,1.02221E-05,-0.000308829,,,0.976309872,0.026266864,-22.66502217,-53.02910951,0.712315489
0.769409119,0.618400589,1.38786E-05,-0.000446066,,,0.977762304,0.436936932,-18.82133671,-45.93852467,0.553512801
0.769409119,0.618400589,1.38786E-05,-0.000446066,,,0.979750741,0.393150832,-19.2167328,-46.69700223,0.575202077
0.773879137,1.215226674,1.882E-05,-0.000785612,,,0.983152344,2.207560856,-5.394728574,-14.39844612,-0.246202831
0.773879137,1.215226674,1.882E-05,-0.000785612,,,0.984480679,0.151157785,-21.46408436,-50.87580794,0.678524664
0.775342772,0.820091992,1.66208E-05,-0.000571032,,,0.986209411,2.854131958,-1.223072828,-2.633702197,-0.102300289
0.775342772,0.820091992,1.66208E-05,-0.000571032,,,0.992297284,2.692197072,-2.284919688,-5.572057595,-0.184858534
0.77543064,1.011236141,1.81808E-05,-0.000679895,,,0.994797898,0.961795752,-14.32012718,-36.75095956,0.284086632
0.77543064,1.011236141,1.81808E-05,-0.000679895,,,1.000131179,0.698356871,-16.51218161,-41.37337289,0.432950324
0.776002454,1.877571746,1.49505E-05,-0.001052113,,,1.004069203,2.099039136,-6.096342624,-16.37049308,-0.233204021
0.782660573,2.457346305,6.97635E-06,-0.001186084,,,1.007253469,1.81346691,-7.99601388,-21.54420115,-0.148581798
0.782660573,2.457346305,6.97635E-06,-0.001186084,,,1.009286177,2.481170269,-3.641977052,-9.413624237,-0.247061329
0.786421617,1.543216283,1.82394E-05,-0.000932394,,,1.009679475,1.724111019,-8.608003919,-23.15585744,-0.112504913
0.786421617,1.543216283,1.82394E-05,-0.000932394,,,1.012161422,1.38358542,-11.04226269,-29.26305694,0.053577137
0.786664453,2.226551646,1.04313E-05,-0.001143994,,,1.012701068,2.611967096,-2.808149142,-7.031457227,-0.21735512
0.788116761,0.20645159,5.69011E-06,-0.000159252,,,1.016322903,2.566978623,-3.096509173,-7.85048801,-0.230865947
0.788116761,0.20645159,5.69011E-06,-0.000159252,,,1.017188486,1.676902601,-8.932571963,-24.00450784,-0.091887085
0.810288453,3,8.71378E-07,-0.001226194,,,1.019163739,2.877588277,-1.088643317,-2.209148856,-0.090688698
0.815789039,2.001416919,1.41407E-05,-0.001088451,,,1.024716786,0.129214025,-21.65862502,-51.22906645,0.717996918
0.816666667,0,0,0,,,1.025878957,2.189474093,-5.506285897,-14.72490014,-0.252299804
0.817496743,2.77931793,2.84163E-06,-0.001219669,,,1.029587058,2.315318361,-4.699574251,-12.43436936,-0.262739454
0.817496743,2.77931793,2.84163E-06,-0.001219669,,,1.032542361,1.124689731,-13.00128634,-33.85847633,0.203372573
0.817705266,1.33010734,1.99127E-05,-0.000840124,,,1.03944605,2.137766485,-5.838022222,-15.66397846,-0.246623785
0.826837862,2.570369874,5.63303E-06,-0.001201035,,,1.042475882,1.59202704,-9.517135815,-25.52429261,-0.051120636
0.826837862,2.570369874,5.63303E-06,-0.001201035,,,1.042840371,0.542647841,-17.84446186,-44.06704657,0.540918867
0.830247746,1.658096949,1.84331E-05,-0.000976768,,,1.04738059,1.938372081,-7.141929524,-19.27980617,-0.196416078
0.830247746,1.658096949,1.84331E-05,-0.000976768,,,1.050755721,1.414802822,-10.79105438,-28.69433994,0.042413013
0.830247746,1.658096949,1.84331E-05,-0.000976768,,,1.054452296,0.286949078,-20.15908194,-48.49170759,0.675943075
0.830247746,1.658096949,1.84331E-05,-0.000976768,,,1.060337329,0.852860581,-15.17538221,-38.63804284,0.374080834
0.830247746,1.658096949,1.84331E-05,-0.000976768,,,1.061250605,0.807749056,-15.55094488,-39.42879491,0.4011755
0.830247746,1.658096949,1.84331E-05,-0.000976768,,,1.062304857,2.9790381,-0.44618203,-0.37748939,-0.017697732
0.832397469,0.516512609,1.32618E-05,-0.000378862,,,1.065579187,2.300082397,-4.795586872,-12.71017092,-0.26972375
0.832663584,0.721149294,1.66891E-05,-0.000510807,,,1.066070237,2.725489219,-2.103070632,-4.966829889,-0.182998878
0.832663584,0.721149294,1.66891E-05,-0.000510807,,,1.071367755,1.105721152,-13.12700265,-34.17864928,0.226499053
0.834122841,1.121557602,2.01907E-05,-0.000738168,,,1.076488707,0.93833089,-14.46298583,-37.1286013,0.329731171
0.835674345,0.917567069,1.8996E-05,-0.000627485,,,1.080772599,0.726726886,-16.22413487,-40.83694921,0.458649893
0.835674345,0.917567069,1.8996E-05,-0.000627485,,,1.08171825,1.285770012,-11.73431369,-30.98264822,0.121724336
0.84175129,0.310538109,8.83107E-06,-0.000235537,,,1.082305793,0.565433792,-17.62167368,-43.64867196,0.552336582
0.851571745,2.356056751,9.18996E-06,-0.001169153,,,1.085136966,2.901674307,-0.976120675,-1.773643306,-0.079379976
0.851571745,2.356056751,9.18996E-06,-0.001169153,,,1.085861325,1.233141223,-12.13142663,-31.91579384,0.154010197
0.855575625,2.125262092,1.29854E-05,-0.001120507,,,1.087220757,2.46276893,-3.769992312,-9.747166364,-0.266562798
0.855575625,2.125262092,1.29854E-05,-0.001120507,,,1.089566116,0.022126733,-22.67087347,-53.02488483,0.808388558
0.860725047,0.103225795,3.24751E-06,-8.08522E-05,,,1.094688403,0.265005318,-20.34529728,-48.8448342,0.715839913
0.860725047,0.103225795,3.24751E-06,-8.08522E-05,,,1.099024566,2.748945539,-1.969807432,-4.540829984,-0.176658506
0.861531394,1.444988006,2.06828E-05,-0.000891096,,,1.100117818,0.441840916,-18.7155477,-45.78408145,0.631285862
0.869370415,2.889658965,1.65837E-06,-0.001224277,,,1.102478311,0.389862004,-19.18681583,-46.68276667,0.66019589
0.869370415,2.889658965,1.65837E-06,-0.001224277,,,1.10251868,2.013095036,-6.632539661,-17.91962336,-0.22579871
0.870034332,1.781942122,1.80727E-05,-0.001020585,,,1.103148656,0.103789558,-21.87335373,-51.61389065,0.790907688
0.870034332,1.781942122,1.80727E-05,-0.001020585,,,1.118228528,1.492958022,-10.1847772,-27.27772589,0.008215831
0.878711533,2.680710909,4.2465E-06,-0.001212091,,,1.122116763,2.627494845,-2.74617963,-6.748041085,-0.233680459
0.892815043,1.231879063,2.1963E-05,-0.000793207,,,1.123212887,2.447532967,-3.869949551,-10.02357665,-0.276014643
0.892815043,1.231879063,2.1963E-05,-0.000793207,,,1.123422422,2.214272228,-5.334706193,-14.26724272,-0.273136245
0.894366546,1.027888531,2.13102E-05,-0.000688411,,,1.12641628,2.574088584,-3.08129274,-7.719700977,-0.25148481
0.895385819,0.414624628,1.20731E-05,-0.000309113,,,1.127533924,1.322828498,-11.42842395,-30.30701038,0.109771783
0.895385819,0.414624628,1.20731E-05,-0.000309113,,,1.131951334,1.210623434,-12.2755368,-32.29668346,0.180175983
0.895651934,0.619261313,1.63701E-05,-0.000446202,,,1.132319499,2.045718258,-6.411773736,-17.32485504,-0.238739644
0.895749034,2.469080319,7.70071E-06,-0.001187282,,,1.133558552,2.295712201,-4.819995114,-12.78604842,-0.282730198
0.895918049,0.823897998,1.9472E-05,-0.000572814,,,1.134851096,2.17071467,-5.609503808,-15.05746523,-0.268181229
0.895918049,0.823897998,1.9472E-05,-0.000572814,,,1.135683258,1.049596599,-13.53057993,-35.14112766,0.283390186
0.895918049,0.823897998,1.9472E-05,-0.000572814,,,1.14430007,0.623966841,-17.07231731,-42.59354713,0.555305097
0.895918049,0.823897998,1.9472E-05,-0.000572814,,,1.146157853,1.845709866,-7.722206353,-20.93794102,-0.168154022
0.895918049,0.823897998,1.9472E-05,-0.000572814,,,1.146875696,2.802223302,-1.65854472,-3.574071435,-0.153218427
0.895918049,0.823897998,1.9472E-05,-0.000572814,,,1.146967611,0.468890344,-18.44567424,-45.28569853,0.647758402
0.905357523,1.559868673,2.1096E-05,-0.000938495,,,1.150242992,0.363812349,-19.40071599,-47.10203798,0.707619796
0.905357523,1.559868673,2.1096E-05,-0.000938495,,,1.157242246,0.20876696,-20.84621571,-49.77063325,0.790242603
0.909820918,1.905787295,1.7306E-05,-0.001060167,,,1.161237173,2.655340074,-2.587179437,-6.241299662,-0.230438304
0.909820918,1.905787295,1.7306E-05,-0.001060167,,,1.169142892,2.55600182,-3.205276983,-8.048189241,-0.264850074
0.914359576,0.207312314,6.71868E-06,-0.000159713,,,1.178113956,2.409703145,-4.110167,-10.71015765,-0.29059582
0.920482917,2.254767196,1.17365E-05,-0.001149296,,,1.178390959,1.299168074,-11.57406557,-30.70706808,0.136570502
0.920482917,2.254767196,1.17365E-05,-0.001149296,,,1.178665295,1.2395918,-12.02441023,-31.76337131,0.174938729
0.921244086,3,5.62316E-07,-0.001225439,,,1.181380266,1.624269996,-9.217784722,-24.9092535,-0.058263183
0.921244086,3,5.62316E-07,-0.001225439,,,1.187166877,2.091397371,-6.103065774,-16.4905216,-0.257749804
0.921244086,3,5.62316E-07,-0.001225439,,,1.189166825,2.901674307,-1.056089393,-1.773679753,-0.087069855
0.930585204,2.791051944,2.7815E-06,-0.001219678,,,1.189356296,1.765818212,-8.240158104,-22.36691144,-0.13169047
0.933333333,0,0,0,,,1.192451877,1.447693814,-10.46839805,-28.06028319,0.046422862
0.933333333,0,0,0,,,1.193251314,0.443382023,-18.64976502,-45.69640192,0.69381804
0.933333333,0,0,0,,,1.194166202,0.390282941,-19.13357728,-46.61410642,0.724734845
0.936641171,1.34675973,2.30275E-05,-0.00084715,,,1.196865307,1.718609794,-8.557614866,-23.21318764,-0.107680323
0.939926323,2.582103888,6.04135E-06,-0.001201782,,,1.196870476,2.9790381,-0.565213372,-0.377499625,-0.020039896
0.939926323,2.582103888,6.04135E-06,-0.001201782,,,1.19729146,1.110287966,-13.01113785,-34.04066687,0.266055071
0.949607504,2.029632468,1.61372E-05,-0.001095482,,,1.199931396,0.942807727,-14.3476697,-36.98680429,0.379466181
0.949607504,2.029632468,1.61372E-05,-0.001095482,,,1.204215288,0.731203723,-16.10924113,-40.68762992,0.522093067
0.953058747,1.138209992,2.33982E-05,-0.000746121,,,1.205145271,2.748945539,-2.02699256,-4.540419336,-0.192910502
0.95461025,0.934219459,2.21201E-05,-0.000636366,,,1.20705058,2.633217156,-2.741727086,-6.643038341,-0.247441045
0.95461025,0.934219459,2.21201E-05,-0.000636366,,,1.208229498,0.570000606,-17.50691251,-43.49096804,0.627538206
0.958640284,0.517373333,1.54953E-05,-0.000379029,,,1.210656783,2.587285164,-3.024683808,-7.478316501,-0.263912274
0.958906399,0.722010018,1.948E-05,-0.000510826,,,1.214718524,0.265005318,-20.28648441,-48.76001089,0.807892919
0.958906399,0.722010018,1.948E-05,-0.000510826,,,1.220014003,0.858651498,-15.02597439,-38.45051805,0.445577116
0.964660206,2.367790765,1.01509E-05,-0.001170604,,,1.22081388,0.103789558,-21.82550061,-51.52485299,0.889820539
0.967973329,1.690066278,2.14103E-05,-0.00098778,,,1.220927279,0.813539973,-15.40164939,-39.23919316,0.476456073
0.967973329,1.690066278,2.14103E-05,-0.00098778,,,1.226507023,2.478004791,-3.696044314,-9.465820331,-0.29228723
0.967994105,0.311398833,1.03232E-05,-0.000235879,,,1.230289914,1.893233792,-7.370692868,-20.06419843,-0.190777402
0.9804673,1.461640396,2.37171E-05,-0.000897546,,,1.234817533,2.325583653,-4.629476628,-12.23664363,-0.302202058
0.9804673,1.461640396,2.37171E-05,-0.000897546,,,1.235292928,1.427762698,-10.5864315,-28.39856276,0.06728938
0.982458876,2.901392979,1.32187E-06,-0.001223794,,,1.236642459,1.134690396,-12.79374472,-33.59009585,0.263594843
0.982458876,2.901392979,1.32187E-06,-0.001223794,,,1.241769472,0.022126733,-22.6169504,-52.90565112,0.941707144
0.986967862,0.104086519,3.811E-06,-8.14085E-05,,,1.24373766,2.730309591,-2.163274285,-4.878596791,-0.209108956
0.986967862,0.104086519,3.811E-06,-8.14085E-05,,,1.247218056,0.548512856,-17.67283874,-43.83678683,0.666211923
0.98939409,2.153477641,1.45843E-05,-0.001126503,,,1.251718645,0.287303668,-20.05715249,-48.34733141,0.824966812
0.98939409,2.153477641,1.45843E-05,-0.001126503,,,1.25440383,2.252911812,-5.075608336,-13.55465979,-0.299079598
0.98939409,2.153477641,1.45843E-05,-0.001126503,,,1.259850064,2.877588277,-1.26495929,-2.209153798,-0.112165427
0.98939409,2.153477641,1.45843E-05,-0.001126503,,,1.260090733,1.925857014,-7.144380893,-19.47007427,-0.205450088
0.98939409,2.153477641,1.45843E-05,-0.001126503,,,1.261477577,2.504357316,-3.541986225,-8.985338705,-0.294279062
0.98939409,2.153477641,1.45843E-05,-0.001126503,,,1.265832505,2.209354254,-5.343306795,-14.34358194,-0.293938085
0.991799994,2.692444923,4.33601E-06,-0.001212368,,,1.274140469,1.617549635,-9.211268842,-24.99973424,-0.044361687
1.007759914,1.813911451,2.07384E-05,-0.001030449,,,1.280398278,0.972153484,-14.05380025,-36.42457653,0.395375524
1.008837495,2.480814333,8.32871E-06,-0.001188282,,,1.285731559,0.708714602,-16.24707307,-41.02530646,0.583699711
1.011750948,1.248531453,2.51978E-05,-0.000800585,,,1.285944139,1.998735156,-6.663256336,-18.15057616,-0.235757235
1.011750948,1.248531453,2.51978E-05,-0.000800585,,,1.288425857,2.121268823,-5.886772091,-15.936172,-0.276403641
1.013302451,1.044540921,2.4556E-05,-0.000696722,,,1.296950263,0.129214025,-21.54365636,-51.02482418,0.943857961
1.013302451,1.044540921,2.4556E-05,-0.000696722,,,1.29722053,2.975115921,-0.688182038,-0.448162532,-0.025799281
1.018313151,0.828336842,2.24796E-05,-0.000574845,,,1.298442453,2.85895233,-1.410993782,-2.546214906,-0.130645537
1.018313151,0.828336842,2.24796E-05,-0.000574845,,,1.299854732,2.369193805,-4.362191471,-11.44007256,-0.313808045
1.021628634,0.415485352,1.39958E-05,-0.000309329,,,1.300935655,1.298410598,-11.49765947,-30.66402609,0.170938624
1.021628634,0.415485352,1.39958E-05,-0.000309329,,,1.30116675,1.248224618,-11.87575943,-31.55148174,0.206398304
1.021894749,0.620122037,1.89515E-05,-0.000446243,,,1.309988234,0.439951249,-18.61013844,-45.6681455,0.778599329
1.021894749,0.620122037,1.89515E-05,-0.000446243,,,1.31075892,0.395221538,-19.01943893,-46.43975911,0.807194047
1.024391104,3,1.26419E-07,-0.001224577,,,1.31698152,1.59761852,-9.323740381,-25.33993369,-0.025960552
1.033571378,2.26650121,1.29597E-05,-0.001150986,,,1.319182447,1.399467416,-10.73702989,-28.86430798,0.105714352
1.033571378,2.26650121,1.29597E-05,-0.001150986,,,1.319749277,0.996555913,-13.82846412,-35.97171419,0.395761225
1.040602391,0.208173038,7.79327E-06,-0.000160136,,,1.320266442,1.164060735,-12.5065726,-33.02626476,0.273560321
1.040602391,0.208173038,7.79327E-06,-0.000160136,,,1.321678692,1.801092037,-7.935660933,-21.69816415,-0.144394053
1.043083105,1.591838002,2.43385E-05,-0.00095024,,,1.324393489,2.64011674,-2.746209742,-6.515969189,-0.265300803
1.043673665,2.802785958,2.553E-06,-0.001219463,,,1.324720117,0.687226852,-16.40496508,-41.37076805,0.622039584
1.043673665,2.802785958,2.553E-06,-0.001219463,,,1.327183158,0.523174549,-17.84674324,-44.21517543,0.736514209
1.0475465,1.937756624,1.96057E-05,-0.001068871,,,1.327431289,2.601424457,-2.977505748,-7.218940349,-0.280342826
1.05,0,0,0,,,1.32790048,2.714807924,-2.302583535,-5.15943103,-0.230548357
1.053014783,2.593837902,6.32546E-06,-0.001202314,,,1.330592713,1.745050457,-8.305588655,-22.69980055,-0.112783783
1.053014783,2.593837902,6.32546E-06,-0.001202314,,,1.3307982,0.313361518,-19.76764279,-47.83344253,0.872276623
1.055577077,1.36341212,2.6222E-05,-0.000853944,,,1.333950384,0.151512375,-21.30889352,-50.60974549,0.964869671
1.055577077,1.36341212,2.6222E-05,-0.000853944,,,1.334825287,2.395546331,-4.204221167,-10.95922986,-0.31897225
1.071994653,1.154862382,2.67138E-05,-0.000753851,,,1.3385355,0.867253326,-14.8709505,-38.222685,0.499996506
1.071994653,1.154862382,2.67138E-05,-0.000753851,,,1.33961966,0.813700988,-15.31702158,-39.15687452,0.539838503
1.077005353,0.938658304,2.53375E-05,-0.000638164,,,1.342149848,2.53331457,-3.385720264,-8.456248673,-0.302512872
1.077748667,2.379524778,1.10331E-05,-0.001171841,,,1.343033937,2.952993003,-0.872309725,-0.847006655,-0.049402123
1.077748667,2.379524778,1.10331E-05,-0.001171841,,,1.351468191,2.285523087,-4.864425739,-12.9538334,-0.316309625
1.081301501,0.726448862,2.2349E-05,-0.000512959,,,1.354651918,0.026266864,-22.52938762,-52.73201344,1.04327051
1.084883099,0.518234057,1.78143E-05,-0.000379108,,,1.357055539,1.839819386,-7.660869052,-20.99299096,-0.162807428
1.084883099,0.518234057,1.78143E-05,-0.000379108,,,1.363384869,1.956328838,-6.902426707,-18.89798707,-0.219611168
1.085605893,2.901392979,9.85266E-07,-0.001222889,,,1.365035284,2.233815479,-5.175221409,-13.8889656,-0.310026398
1.087333086,2.061601797,1.80225E-05,-0.001103012,,,1.366595044,2.114829666,-5.903985389,-16.04022584,-0.280446872
1.087333086,2.061601797,1.80225E-05,-0.001103012,,,1.370191608,2.814258928,-1.736573435,-3.355420731,-0.172746134
1.089793744,2.183095592,1.55076E-05,-0.001132619,,,1.377813692,2.977877083,-0.755402449,-0.398445403,-0.024450489
1.089793744,2.183095592,1.55076E-05,-0.001132619,,,1.381449748,1.721390033,-8.435150477,-23.10557382,-0.093263833
1.09423692,0.312259557,1.18782E-05,-0.000236163,,,1.382334185,1.530779391,-9.749803409,-26.50258802,0.030436089
1.09423692,0.312259557,1.18782E-05,-0.000236163,,,1.38451458,1.057271863,-13.29498159,-34.86373046,0.379880069
1.103634529,0.104086519,4.32693E-06,-8.12918E-05,,,1.385249461,0.896221691,-14.5965707,-37.68280741,0.503066767
1.104888455,2.704178937,4.26973E-06,-0.001212408,,,1.385903363,0.788192667,-15.49765139,-39.56674263,0.585012285
1.104888455,2.704178937,4.26973E-06,-0.001212408,,,1.387098377,0.630411431,-16.85472365,-42.30816361,0.702152318
1.105698911,1.722035607,2.43643E-05,-0.000998271,,,1.392982082,2.316806431,-4.672429697,-12.38268905,-0.324645781
1.105698911,1.722035607,2.43643E-05,-0.000998271,,,1.394369834,0.208384117,-20.72697538,-49.57866871,0.986119808
1.118192882,1.493609725,2.7217E-05,-0.000910011,,,1.398575128,0.052737455,-22.24600881,-52.23680535,1.072087662
1.121925956,2.492548347,8.84998E-06,-0.00118905,,,1.398853424,2.449195078,-3.890471096,-9.981248504,-0.325470254
1.121925956,2.492548347,8.84998E-06,-0.00118905,,,1.404918721,1.956956142,-6.879440701,-18.87631009,-0.219149389
1.127538121,3,-4.69989E-07,-0.001223533,,,1.406360785,1.840564065,-7.629401706,-20.9644371,-0.159691017
1.130686854,1.265183843,2.85309E-05,-0.00080772,,,1.408128895,2.11545697,-5.886783387,-16.02139251,-0.28272088
1.130686854,1.265183843,2.85309E-05,-0.00080772,,,1.41434053,2.234560158,-5.161281396,-13.86899186,-0.314827122
1.130686854,1.265183843,2.85309E-05,-0.00080772,,,1.422239399,2.870209301,-1.446975054,-2.342457171,-0.132777909
1.130686854,1.265183843,2.85309E-05,-0.00080772,,,1.431138922,2.289028927,-4.833230194,-12.88139482,-0.325578852
1.130686854,1.265183843,2.85309E-05,-0.00080772,,,1.431211583,1.749111868,-8.218736554,-22.59151047,-0.103492452
1.130686854,1.265183843,2.85309E-05,-0.00080772,,,1.431625583,0.81504254,-15.23652804,-39.06258369,0.591215647
1.133971033,2.29611916,1.35461E-05,-0.001156088,,,1.43205584,0.869519226,-14.78131371,-38.11285147,0.549151464
1.135697554,1.048979765,2.79345E-05,-0.000698275,,,1.43970018,1.804770051,-7.845141757,-21.59381177,-0.135924467
1.140708254,0.832775687,2.56043E-05,-0.000576738,,,1.44392321,0.026470592,-22.48626755,-52.63770934,1.127585672
1.140708254,0.832775687,2.56043E-05,-0.000576738,,,1.446683584,1.403975855,-10.61218374,-28.71731639,0.139120604
1.144289851,0.624560882,2.16325E-05,-0.000448492,,,1.447045241,1.602217571,-9.205911417,-25.20217765,-0.004350317
1.145485497,1.84588078,2.33426E-05,-0.00103977,,,1.447767578,1.168569173,-12.37515843,-32.86603988,0.321400708
1.146820683,2.802785958,2.37203E-06,-0.0012185,,,1.448609721,0.68805743,-16.30681203,-41.25558071,0.699407584
1.147871448,0.416346076,1.59965E-05,-0.000309469,,,1.448631824,0.523988762,-17.75477361,-44.09614158,0.821807208
1.147871448,0.416346076,1.59965E-05,-0.000309469,,,1.449258313,2.725843104,-2.306460261,-4.957831012,-0.242131136
1.147871448,0.416346076,1.59965E-05,-0.000309469,,,1.449812998,1.001154964,-13.69219482,-35.79969558,0.454957742
1.147871448,0.416346076,1.59965E-05,-0.000309469,,,1.451537238,2.891171201,-1.350276261,-1.963267792,-0.116052962
1.147871448,0.416346076,1.59965E-05,-0.000309469,,,1.452246865,0.314175732,-19.68421693,-47.70696775,0.969799995
1.147871448,0.416346076,1.59965E-05,-0.000309469,,,1.457839988,0.152342953,-21.2335995,-50.47452201,1.074089709
1.157269058,0.208173038,8.79976E-06,-0.000159898,,,1.458622233,2.406803302,-4.140882293,-10.74569887,-0.336014118
1.166103244,2.605571916,6.47095E-06,-0.001202595,,,1.46350768,2.544349751,-3.350430814,-8.250980974,-0.319073657
1.166103244,2.605571916,6.47095E-06,-0.001202595,,,1.465862048,1.304242393,-11.33183236,-30.46625725,0.222176708
1.166103244,2.605571916,6.47095E-06,-0.001202595,,,1.466093143,1.254056412,-11.70820717,-31.35008632,0.261619102
1.166103244,2.605571916,6.47095E-06,-0.001202595,,,1.467085581,0.441004457,-18.49501886,-45.51039253,0.895143388
1.166103244,2.605571916,6.47095E-06,-0.001202595,,,1.467856266,0.396274746,-18.90661534,-46.27992469,0.927116698
1.166103244,2.605571916,6.47095E-06,-0.001202595,,,1.469533763,2.981364053,-0.83718577,-0.335575957,-0.02202468
1.166666667,0,0,0,,,1.480766398,2.001677643,-6.562160922,-18.05246865,-0.237283937
1.178148321,2.409142729,1.12672E-05,-0.001175912,,,1.481373341,2.654391064,-2.730702365,-6.253560941,-0.283752761
1.180808688,1.623807331,2.75917E-05,-0.000961439,,,1.483248117,2.12421131,-5.807772575,-15.84846406,-0.287554801
1.185272083,1.969725953,2.18029E-05,-0.001077007,,,1.484411142,2.615698781,-2.951036009,-6.955561058,-0.300175797
1.185272083,1.969725953,2.18029E-05,-0.001077007,,,1.487125296,0.710675279,-16.08155189,-40.82861779,0.706925161
1.187732741,2.091219748,1.91596E-05,-0.00110973,,,1.488963715,1.625569945,-9.015997038,-24.76686999,-0.011116267
1.188752911,2.901392979,5.06515E-07,-0.001221792,,,1.489241849,0.978661288,-13.84187927,-36.16166646,0.493508672
1.190193398,2.212713542,1.62947E-05,-0.001138322,,,1.490764867,2.383404034,-4.276032093,-11.16651355,-0.339538645
1.190193398,2.212713542,1.62947E-05,-0.001138322,,,1.496040396,0.13021622,-21.42858169,-50.81179206,1.121709809
1.193302659,1.395381449,2.99662E-05,-0.000867121,,,1.502636985,1.929520298,-7.004658822,-19.33961087,-0.199583416
1.193302659,1.395381449,2.99662E-05,-0.000867121,,,1.507618575,2.912584621,-1.281100101,-1.57632634,-0.098891869
1.194389755,1.159301226,3.02034E-05,-0.000755148,,,1.508378757,2.213017538,-5.268057166,-14.2430756,-0.315530874
1.194389755,1.159301226,3.02034E-05,-0.000755148,,,1.52252942,2.258901049,-4.994748236,-13.41285584,-0.326988176
1.199400455,0.943097148,2.86771E-05,-0.000639799,,,1.524514459,2.755840886,-2.183552716,-4.412982061,-0.233113789
1.203696604,0.730887706,2.53365E-05,-0.000514957,,,1.528205007,0.550396642,-17.45821973,-43.5628549,0.860151498
1.207278201,0.522672901,2.02551E-05,-0.000381494,,,1.530283042,1.438193544,-10.30062777,-28.06186887,0.140503748
1.207278201,0.522672901,2.02551E-05,-0.000381494,,,1.530721491,1.899368065,-7.180356306,-19.86929042,-0.179885556
1.208035472,2.704178937,4.2953E-06,-0.001211372,,,1.531632573,1.145121241,-12.48878381,-33.21531231,0.378357308
1.208035472,2.704178937,4.2953E-06,-0.001211372,,,1.532705596,0.289187454,-19.86726784,-48.05189835,1.054120533
1.210903586,0.312259557,1.33457E-05,-0.000235798,,,1.542254376,2.529888611,-3.449893595,-8.508976819,-0.332832413
1.210903586,0.312259557,1.33457E-05,-0.000235798,,,1.549624433,2.339436456,-4.524551971,-11.95464634,-0.341500427
1.220301195,0.104086519,4.86282E-06,-8.11567E-05,,,1.549640464,0.819308863,-15.10618005,-38.88429573,0.659210445
1.22232561,2.522166297,8.72252E-06,-0.001192073,,,1.550002904,0.865199043,-14.72215902,-38.08617789,0.621388121
1.22232561,2.522166297,8.72252E-06,-0.001192073,,,1.553812298,2.776802786,-2.087390624,-4.032935319,-0.222037879
1.230685139,3,-1.24377E-06,-0.00122228,,,1.557030242,0.02229835,-22.47090284,-52.58068211,1.240387057
1.234370687,2.325737111,1.39707E-05,-0.001160758,,,1.561773858,1.733989955,-8.23424586,-22.80401163,-0.069961258
1.243424494,1.754004936,2.7289E-05,-0.001008179,,,1.566720582,0.573014492,-17.22597326,-43.13263984,0.870878751
1.243424494,1.754004936,2.7289E-05,-0.001008179,,,1.567762847,0.736504663,-15.79454524,-40.30354475,0.739300828
1.2499677,2.802785958,2.07086E-06,-0.001217333,,,1.5689245,1.780875407,-7.920703031,-21.96664369,-0.100120654
1.2499677,2.802785958,2.07086E-06,-0.001217333,,,1.569462942,0.951761091,-13.99364157,-36.5612582,0.560315006
1.255918465,1.525579054,3.07616E-05,-0.000921905,,,1.570906003,0.267060721,-20.05232796,-48.3881494,1.102429503
1.255918465,1.525579054,3.07616E-05,-0.000921905,,,1.571061424,1.122627565,-12.63073967,-33.57684532,0.416560233
1.257105962,1.269654021,3.21993E-05,-0.000808723,,,1.572201516,1.461545919,-10.10022605,-27.62230506,0.136843895
1.257105962,1.269654021,3.21993E-05,-0.000808723,,,1.573555954,0.104594559,-21.63627815,-51.16014387,1.20981985
1.258092656,1.053418609,3.14385E-05,-0.00069964,,,1.574397011,2.506489343,-3.585718713,-8.93068487,-0.340755469
1.258092656,1.053418609,3.14385E-05,-0.00069964,,,1.578960585,1.64031805,-8.850428532,-24.4573855,0.001352828
1.263103357,0.837214531,2.88535E-05,-0.000578471,,,1.579041084,2.097316021,-5.932891358,-16.30839971,-0.274942952
1.263103357,0.837214531,2.88535E-05,-0.000578471,,,1.583758681,0.446000053,-18.36320033,-45.30285526,0.98289372
1.266684954,0.628999726,2.44314E-05,-0.000450615,,,1.584673569,0.392900971,-18.85383939,-46.21452302,1.023745309
1.266684954,0.628999726,2.44314E-05,-0.000450615,,,1.586685279,2.824168798,-1.852073763,-3.174930796,-0.188389726
1.268289449,0.41715338,1.79819E-05,-0.000309511,,,1.588359509,1.313664555,-11.1628522,-30.21395298,0.26398042
1.268289449,0.41715338,1.79819E-05,-0.000309511,,,1.588633844,1.254088281,-11.60808153,-31.25954028,0.314030771
1.273935724,0.208173038,9.84425E-06,-0.000159622,,,1.594629191,2.981364053,-0.988549701,-0.33557794,-0.023878546
1.273935724,0.208173038,9.84425E-06,-0.000159622,,,1.597265884,2.668699796,-2.705409068,-5.990990088,-0.292477121
1.278547976,2.438760679,1.13125E-05,-0.001179533,,,1.600872086,2.622767804,-2.955961196,-6.823015736,-0.312713423
1.278547976,2.438760679,1.13125E-05,-0.001179533,,,1.604327227,2.912584621,-1.383024654,-1.576250169,-0.104750025
1.283211079,1.877850109,2.58756E-05,-0.001048478,,,1.612502,1.860242983,-7.379902011,-20.53383327,-0.143206618
1.283211079,1.877850109,2.58756E-05,-0.001048478,,,1.61427869,2.434591128,-3.986465199,-10.22738979,-0.350524372
1.283333333,0,0,0,,,1.629296294,0.630081994,-16.66906878,-42.07961303,0.870546143
1.285671737,1.999343904,2.31813E-05,-0.001084299,,,1.629480901,0.472849926,-18.08126682,-44.78907639,0.998565369
1.286431183,2.616513447,6.49723E-06,-0.001202411,,,1.629758121,2.053231295,-6.174630483,-17.08269069,-0.250560701
1.286431183,2.616513447,6.49723E-06,-0.001202411,,,1.630021651,0.366634108,-19.06529653,-46.61277428,1.081427962
1.288132395,2.120837698,2.01738E-05,-0.001116009,,,1.631432986,0.210386174,-20.55797946,-49.28516702,1.196045378
1.290593053,2.242331493,1.69325E-05,-0.00114358,,,1.632045638,2.693583875,-2.589113474,-5.539051999,-0.283833254
1.290593053,2.242331493,1.69325E-05,-0.00114358,,,1.632289719,2.178227707,-5.433703653,-14.84197378,-0.303882108
1.291899928,2.901392979,-1.27578E-07,-0.001220471,,,1.63271594,1.063058401,-13.04574042,-34.56207395,0.500629247
1.291899928,2.901392979,-1.27578E-07,-0.001220471,,,1.635440223,1.227385816,-11.76997626,-31.68841974,0.359159023
1.318534271,1.65577666,3.085E-05,-0.000972024,,,1.638121344,1.34138639,-10.91623436,-29.68801854,0.262584241
1.318534271,1.65577666,3.085E-05,-0.000972024,,,1.639028926,2.594990301,-3.119135886,-7.32421792,-0.326651184
1.319721768,1.399851626,3.36319E-05,-0.000867795,,,1.643309984,1.513514514,-9.675380468,-26.65706609,0.121168598
1.320808863,1.163771404,3.39411E-05,-0.0007562,,,1.6454174,2.312541167,-4.662615675,-12.42445717,-0.340897951
1.321795558,0.947535992,3.21455E-05,-0.000641246,,,1.646440381,2.224111218,-5.163888751,-14.0145533,-0.318732017
1.321795558,0.947535992,3.21455E-05,-0.000641246,,,1.652464651,2.776802786,-2.159746652,-4.031599913,-0.232870552
1.326091706,0.735326551,2.84488E-05,-0.000516801,,,1.657842627,2.023079062,-6.342247272,-17.61155424,-0.231511528
1.326091706,0.735326551,2.84488E-05,-0.000516801,,,1.672115275,2.479053499,-3.746810232,-9.417781159,-0.352080367
1.327696202,0.523480205,2.26538E-05,-0.000381359,,,1.674478369,0.39297124,-18.78434333,-46.106926,1.098788846
1.328363411,2.715120468,3.92035E-06,-0.001210727,,,1.674852507,0.446087976,-18.29090153,-45.19482064,1.056819947
1.331321587,0.313066861,1.49504E-05,-0.000235939,,,1.675285019,2.891171201,-1.574908289,-1.962844413,-0.132143237
1.333832156,3,-2.21181E-06,-0.001220783,,,1.678738492,2.693583875,-2.614237253,-5.537554562,-0.288855364
1.333832156,3,-2.21181E-06,-0.001220783,,,1.682336159,1.253709287,-11.53016006,-31.18609019,0.359748676
1.333832156,3,-2.21181E-06,-0.001220783,,,1.682417775,2.609538165,-3.056079496,-7.058310467,-0.326047438
1.334770341,2.355355061,1.42175E-05,-0.001164963,,,1.685291614,1.308133588,-11.12106056,-30.23106798,0.313459989
1.334770341,2.355355061,1.42175E-05,-0.001164963,,,1.68877175,2.977877083,-1.128905501,-0.398418672,-0.02985429
1.336967862,0.104086519,5.41967E-06,-8.10014E-05,,,1.690579755,0.736575221,-15.68960611,-40.16997407,0.823859139
1.336967862,0.104086519,5.41967E-06,-8.10014E-05,,,1.690936124,0.267060721,-19.96634053,-48.24161631,1.209930363
1.342653549,2.533107829,8.99867E-06,-0.001192023,,,1.691221178,0.104594559,-21.56219153,-51.01084734,1.324805353
1.370295639,2.813727489,1.28583E-06,-0.001216204,,,1.691797871,2.776802786,-2.189052949,-4.031007047,-0.236725122
1.381150076,1.785974265,3.01755E-05,-0.001017427,,,1.692005928,0.573086468,-17.12271025,-42.98952774,0.965656755
1.381150076,1.785974265,3.01755E-05,-0.001017427,,,1.692279849,0.951831649,-13.88625261,-36.43771021,0.634384062
1.381150076,1.785974265,3.01755E-05,-0.001017427,,,1.69634677,1.122699541,-12.52106082,-33.46023287,0.48376303
1.381150076,1.785974265,3.01755E-05,-0.001017427,,,1.701535641,2.662199747,-2.789180163,-6.104772255,-0.306626524
1.381150076,1.785974265,3.01755E-05,-0.001017427,,,1.708507671,0.819400132,-14.96885826,-38.71625352,0.763300275
1.381150076,1.785974265,3.01755E-05,-0.001017427,,,1.708665259,2.491308357,-3.684642052,-9.192681343,-0.353004233
1.381150076,1.785974265,3.01755E-05,-0.001017427,,,1.708870112,0.865290312,-14.58418707,-37.92093353,0.722559441
1.382337573,1.530049232,3.43482E-05,-0.000922232,,,1.709233598,0.02229835,-22.38353813,-52.38372263,1.395762849
1.38352507,1.274124198,3.60043E-05,-0.000809458,,,1.710654386,1.440613829,-10.13485368,-27.88707571,0.210255184
1.38352507,1.274124198,3.60043E-05,-0.000809458,,,1.710776685,1.955881361,-6.720464499,-18.78672211,-0.183232574
1.383610734,1.90746806,2.75186E-05,-0.001056317,,,1.712394093,2.321178359,-4.601448496,-12.25586506,-0.341814038
1.383610734,1.90746806,2.75186E-05,-0.001056317,,,1.714618239,2.891171201,-1.616879186,-1.962741311,-0.134685587
1.384511765,1.057888787,3.51951E-05,-0.000700758,,,1.714685584,1.619798375,-8.884426693,-24.73317734,0.061824388
1.385498459,0.841653375,3.22327E-05,-0.000580021,,,1.722354283,2.148080752,-5.572289789,-15.35541273,-0.283989577
1.385498459,0.841653375,3.22327E-05,-0.000580021,,,1.728385663,0.289246647,-19.72445976,-47.81292847,1.227213477
1.385498459,0.841653375,3.22327E-05,-0.000580021,,,1.730226152,0.550542683,-17.29264016,-43.33005947,1.014909581
1.385498459,0.841653375,3.22327E-05,-0.000580021,,,1.735464604,2.977877083,-1.191163437,-0.398411873,-0.030634522
1.385498459,0.841653375,3.22327E-05,-0.000580021,,,1.735851062,1.14487396,-12.31314438,-33.03356703,0.486419431
1.385498459,0.841653375,3.22327E-05,-0.000580021,,,1.737338053,1.707447165,-8.280384208,-23.1719036,0.000258263
1.386071392,2.028961854,2.44526E-05,-0.001091123,,,1.739152675,2.202549522,-5.254322467,-14.37590541,-0.30452325
1.386071392,2.028961854,2.44526E-05,-0.001091123,,,1.744488694,1.754332616,-7.968065451,-22.33958234,-0.033591359
1.387102954,0.629807029,2.72019E-05,-0.000450289,,,1.748226998,1.839723308,-7.418041266,-20.82761656,-0.095671479
1.388532049,2.150455648,2.10527E-05,-0.001121813,,,1.748944078,2.333433217,-4.526783263,-12.02773137,-0.342844557
1.388532049,2.150455648,2.10527E-05,-0.001121813,,,1.750389772,1.412602267,-10.30086283,-28.34362416,0.253413346
1.38870745,0.417960684,2.00459E-05,-0.000309465,,,1.755693678,2.112286738,-5.763398549,-15.98240111,-0.26229351
1.38870745,0.417960684,2.00459E-05,-0.000309465,,,1.768273872,0.13021622,-21.25265563,-50.46792309,1.384067628
1.390992707,2.271949443,1.74063E-05,-0.001148356,,,1.771185064,2.824168798,-2.013168771,-3.173234707,-0.204854717
1.390992707,2.271949443,1.74063E-05,-0.001148356,,,1.77127785,0.710838524,-15.84013791,-40.51613194,0.905636444
1.390992707,2.271949443,1.74063E-05,-0.001148356,,,1.773394402,0.978824533,-13.5933721,-35.87804682,0.66200968
1.390992707,2.271949443,1.74063E-05,-0.001148356,,,1.782541524,2.217097385,-5.156054209,-14.1021572,-0.304874919
1.390992707,2.271949443,1.74063E-05,-0.001148356,,,1.783507465,2.776802786,-2.258330178,-4.02936495,-0.244817436
1.394353725,0.208980342,1.10028E-05,-0.000159892,,,1.785723195,2.492074821,-3.686145384,-9.169131271,-0.354782606
1.398875915,2.44970221,1.18707E-05,-0.0011796,,,1.787838853,2.578054339,-3.249123953,-7.61936961,-0.342267335
1.4,0,0,0,,,1.788827012,2.912584621,-1.591234484,-1.575894012,-0.114882709
1.4,0,0,0,,,1.789600994,0.396620417,-18.65653663,-45.89222616,1.195278906
1.4,0,0,0,,,1.789916161,0.441365,-18.2391951,-45.12524665,1.15769075
1.406759122,2.627454978,6.34214E-06,-0.001201848,,,1.796295497,2.002146971,-6.387713497,-17.92317747,-0.191649318
1.406759122,2.627454978,6.34214E-06,-0.001201848,,,1.801755605,1.252120062,-11.43429601,-31.09573612,0.426217159
1.412227867,2.91233451,-1.32514E-06,-0.001218832,,,1.802711372,2.750365362,-2.401781809,-4.506694785,-0.265285657
1.412227867,2.91233451,-1.32514E-06,-0.001218832,,,1.80298078,1.578095065,-9.094344555,-25.39710593,0.133753993
1.429720098,3,-3.30056E-06,-0.001219141,,,1.803943399,2.622415508,-3.032104238,-6.817589501,-0.329980107
1.444953379,1.660246837,3.42791E-05,-0.000971983,,,1.804245227,1.297966113,-11.0895857,-30.29408231,0.385351212
1.444953379,1.660246837,3.42791E-05,-0.000971983,,,1.805723411,0.152402146,-21.00385382,-50.03597143,1.405295193
1.446140876,1.404321804,3.7432E-05,-0.000868158,,,1.807097016,0.314453387,-19.42018536,-47.27236639,1.279191484
1.446509707,0.736133854,3.15473E-05,-0.000516268,,,1.807842566,2.130667905,-5.631567478,-15.6340795,-0.261879898
1.446509707,0.736133854,3.15473E-05,-0.000516268,,,1.808575366,0.524336178,-17.46162424,-43.67591567,1.101467879
1.447227972,1.168241581,3.78208E-05,-0.000756982,,,1.809498074,0.68829474,-16.00144806,-40.85459764,0.955103801
1.448114202,0.524287508,2.51436E-05,-0.000381108,,,1.812898694,1.000998952,-13.37771035,-35.44626235,0.667559487
1.448214666,0.95200617,3.58666E-05,-0.00064245,,,1.816861905,2.37002486,-4.318086947,-11.35600624,-0.345789079
1.448214666,0.95200617,3.58666E-05,-0.00064245,,,1.817892019,2.181009783,-5.342560332,-14.73367662,-0.284076269
1.44869135,2.726061999,3.31813E-06,-0.001209676,,,1.81801817,1.167071638,-12.06596172,-32.5576374,0.515141789
1.451739588,0.313874165,1.66214E-05,-0.000236008,,,1.822265257,0.026470592,-22.26731347,-52.14709395,1.512789383
1.45509828,2.366296592,1.5084E-05,-0.001165129,,,1.824324357,2.981364053,-1.296582697,-0.335559652,-0.027080112
1.45509828,2.366296592,1.5084E-05,-0.001165129,,,1.826532411,0.815269413,-14.89612127,-38.64182775,0.850847091
1.457385863,0.104893823,6.062E-06,-8.14353E-05,,,1.826962668,0.869746099,-14.43891005,-37.70017219,0.800288119
1.457385863,0.104893823,6.062E-06,-8.14353E-05,,,1.829696209,1.38212107,-10.44932917,-28.79993441,0.322193756
1.462981488,2.54404936,9.12138E-06,-0.001191569,,,1.840224781,2.017630936,-6.268321452,-17.62572983,-0.189373206
1.478590761,1.880801016,3.04301E-05,-0.001046687,,,1.842716166,1.550083503,-9.251756173,-25.85242363,0.177326372
1.478590761,1.880801016,3.04301E-05,-0.001046687,,,1.844738556,1.851893184,-7.270472681,-20.55110911,-0.072089621
1.481051419,2.00229481,2.71694E-05,-0.001082371,,,1.859882224,2.295676215,-4.700383344,-12.67415401,-0.32196769
1.483512076,2.123788604,2.35151E-05,-0.001113949,,,1.861264565,2.700159137,-2.679170493,-5.410873322,-0.29895159
1.485972734,2.245282399,1.95563E-05,-0.001141386,,,1.866721975,0.052807724,-21.96534755,-51.63127894,1.541921905
1.485972734,2.245282399,1.95563E-05,-0.001141386,,,1.866885208,0.208661772,-20.39876206,-48.98579054,1.422261907
1.490623578,2.82466902,2.22456E-07,-0.001214638,,,1.867623227,1.683132681,-8.33406966,-23.49980709,0.073767972
1.490623578,2.82466902,2.22456E-07,-0.001214638,,,1.869858827,0.630829405,-16.45100736,-41.75908248,1.055582167
1.507273091,0.841723335,3.56365E-05,-0.000578816,,,1.871904017,0.788507463,-15.08038928,-39.0416962,0.909840668
1.507273091,0.841723335,3.56365E-05,-0.000578816,,,1.873858603,0.896069571,-14.1761637,-37.18290059,0.809313277
1.507520955,0.630614333,3.00738E-05,-0.000449817,,,1.876111824,1.738790864,-7.96364948,-22.51637343,0.030862615
1.507520955,0.630614333,3.00738E-05,-0.000449817,,,1.87758208,1.055844886,-12.87831856,-34.4147664,0.659288986
1.508115809,2.91233451,-2.2977E-06,-0.001217038,,,1.878729695,2.912584621,-1.697992709,-1.575556655,-0.118984453
1.508756681,1.534519409,3.80639E-05,-0.000922202,,,1.888667839,1.867377149,-7.140823276,-20.24734822,-0.066711208
1.508756681,1.534519409,3.80639E-05,-0.000922202,,,1.889660845,2.265276668,-4.851668417,-13.20589973,-0.306019932
1.50912545,0.418767987,2.21902E-05,-0.00030932,,,1.894475578,2.455061727,-3.87269762,-9.815065346,-0.35033917
1.50912545,0.418767987,2.21902E-05,-0.00030932,,,1.901071808,1.488404931,-9.62692703,-26.87181413,0.264281071
1.509944179,1.278594376,3.99512E-05,-0.00080988,,,1.911123385,0.026337132,-22.20550024,-52.00627906,1.609454054
1.509944179,1.278594376,3.99512E-05,-0.00080988,,,1.914377542,2.113501149,-5.670927006,-15.88889871,-0.225757089
1.510930873,1.062358964,3.90964E-05,-0.000701605,,,1.914793497,1.649879878,-8.513128593,-24.03927844,0.125877178
1.510930873,1.062358964,3.90964E-05,-0.000701605,,,1.916835164,2.028511778,-6.154968736,-17.38928421,-0.171825041
1.514771725,0.209787645,1.22122E-05,-0.000160111,,,1.9173985,0.814451624,-14.81709712,-38.52930259,0.919938547
1.514771725,0.209787645,1.22122E-05,-0.000160111,,,1.91892283,0.867537046,-14.36996707,-37.61205486,0.870076047
1.515723255,1.765628729,3.41491E-05,-0.001008447,,,1.922619543,2.891171201,-1.847618867,-1.961637445,-0.145991073
1.515723255,1.765628729,3.41491E-05,-0.001008447,,,1.92284302,2.15590824,-5.429803257,-15.13373794,-0.247029614
1.516666667,0,0,0,,,1.926894442,0.313920007,-19.32378144,-47.09714909,1.391652155
1.519203854,2.460643742,1.23051E-05,-0.001179234,,,1.927928588,0.151858046,-20.9138161,-49.8522774,1.529780005
1.519203854,2.460643742,1.23051E-05,-0.001179234,,,1.928260711,1.757172031,-7.801821414,-22.14989815,0.040036999
1.52560804,3,-4.5855E-06,-0.001217222,,,1.928372792,0.523802798,-17.35821942,-43.50700405,1.203612039
1.527087061,2.638396509,5.98794E-06,-0.001200839,,,1.928513194,2.530176837,-3.506062461,-8.462436612,-0.348007146
1.527087061,2.638396509,5.98794E-06,-0.001200839,,,1.931703251,0.68775064,-15.89235773,-40.6882379,1.052358602
1.550078308,2.339629548,1.70137E-05,-0.001158681,,,1.939564292,0.994782808,-13.30668047,-35.38650638,0.762103408
1.568284339,0.736203814,3.47716E-05,-0.00051509,,,1.940616067,2.981364053,-1.465896043,-0.335553522,-0.028484737
1.568532203,0.525094812,2.77253E-05,-0.000380728,,,1.94182345,2.864733777,-1.987020316,-2.438605752,-0.175692194
1.568532203,0.525094812,2.77253E-05,-0.000380728,,,1.942188136,1.160977968,-11.99424067,-32.50943217,0.602090862
1.569019289,2.73700353,2.46504E-06,-0.001208147,,,1.944562415,0.395930475,-18.52776857,-45.66863247,1.335196237
1.569019289,2.73700353,2.46504E-06,-0.001208147,,,1.94461774,2.574538005,-3.298267707,-7.664160507,-0.342159659
1.569989297,0.952076129,3.95208E-05,-0.000641005,,,1.944877582,0.440675057,-18.10858364,-44.90344286,1.294738773
1.572157588,0.314681468,1.83596E-05,-0.000235999,,,1.953866175,1.376027399,-10.37690812,-28.76658239,0.401919331
1.572157588,0.314681468,1.83596E-05,-0.000235999,,,1.954285476,1.912353725,-6.81562886,-19.40782649,-0.07337161
1.572559984,1.408791981,4.13711E-05,-0.000868158,,,1.956544067,2.227430131,-5.024613415,-13.85054944,-0.273859377
1.572559984,1.408791981,4.13711E-05,-0.000868158,,,1.960277746,2.405673852,-4.108371119,-10.68131196,-0.335066688
1.57364708,1.172711759,4.18458E-05,-0.000757448,,,1.962373032,1.244237724,-11.34090108,-31.04091199,0.534890782
1.57364708,1.172711759,4.18458E-05,-0.000757448,,,1.962444534,1.673474716,-8.314943636,-23.58071085,0.130484999
1.574052529,0.104893823,6.66748E-06,-8.12321E-05,,,1.964862655,1.290083775,-10.99602721,-30.24343885,0.491982275
1.576031446,1.975627766,3.00592E-05,-0.001073167,,,1.965331536,0.129559696,-21.10762724,-50.16689201,1.586951018
1.576031446,1.975627766,3.00592E-05,-0.001073167,,,1.967423151,1.725108686,-7.974290093,-22.67461049,0.087660163
1.578492104,2.09712156,2.61588E-05,-0.001105622,,,1.968809195,2.788574961,-2.345563476,-3.811543451,-0.245865106
1.579526557,1.639901301,3.85384E-05,-0.000962132,,,1.969381765,1.543867359,-9.179266895,-25.83150495,0.252747708
1.580952761,2.218615355,2.18903E-05,-0.001133947,,,1.970016948,2.663146043,-2.899431277,-6.069686769,-0.317171253
1.580952761,2.218615355,2.18903E-05,-0.001133947,,,1.970026984,0.709605534,-15.66513752,-40.25273202,1.062669857
1.583309427,2.554990891,9.07735E-06,-0.001190639,,,1.977525585,0.970747522,-13.46391678,-35.74584127,0.813823441
1.583309427,2.554990891,9.07735E-06,-0.001190639,,,1.990056367,2.375274305,-4.251829009,-11.21298477,-0.321871358
1.58651152,2.82466902,-5.66518E-07,-0.001212661,,,2.001023609,1.844754703,-7.190620794,-20.55286954,0.003368172
1.604003751,2.91233451,-3.44187E-06,-0.001214941,,,2.005552261,0.288012604,-19.50414477,-47.40508183,1.490545049
1.61316394,1.860455479,3.43492E-05,-0.001037839,,,2.00739275,0.549308641,-17.05198188,-42.94045302,1.24850542
1.614183881,2.433976698,1.39645E-05,-0.001173289,,,2.00952214,1.563743225,-9.005894263,-25.44003704,0.258811182
1.621495982,3,-6.07991E-06,-0.001214989,,,2.023134088,1.130775478,-12.14823056,-32.91679366,0.689796928
1.629047722,0.841793294,3.91562E-05,-0.000577391,,,2.024146326,0.022185926,-22.16142715,-51.87734233,1.73860812
1.629047722,0.841793294,3.91562E-05,-0.000577391,,,2.024538674,2.977877083,-1.607083903,-0.398400097,-0.0346322
1.629295587,0.630684292,3.30548E-05,-0.000448698,,,2.02697724,2.006335052,-6.205992853,-17.70314715,-0.110850428
1.629543451,0.419575291,2.44148E-05,-0.000309065,,,2.032101379,2.490525858,-3.691561796,-9.148971412,-0.334754389
1.629543451,0.419575291,2.44148E-05,-0.000309065,,,2.033298119,0.8159213,-14.6917119,-38.32292781,1.010349481
1.629543451,0.419575291,2.44148E-05,-0.000309065,,,2.034013343,1.817745118,-7.329832562,-20.99338566,0.044054705
1.629543451,0.419575291,2.44148E-05,-0.000309065,,,2.03415774,2.312466998,-4.549912628,-12.3094388,-0.288676723
1.629543451,0.419575291,2.44148E-05,-0.000309065,,,2.034582187,0.860639504,-14.31441062,-37.55206133,0.967106778
1.629543451,0.419575291,2.44148E-05,-0.000309065,,,2.037672798,1.398503785,-10.13391119,-28.26948533,0.436006013
1.631438392,0.209787645,1.33873E-05,-0.000159693,,,2.042330697,0.104067214,-21.30166248,-50.46027613,1.69047417
1.632705504,1.062428924,4.29482E-05,-0.000699895,,,2.042955209,0.265714255,-19.6872263,-47.71718069,1.547741231
1.633333333,0,0,0,,,2.045716483,0.571163535,-16.81750305,-42.49989773,1.261174895
1.636363287,1.283064553,4.40422E-05,-0.000809937,,,2.047335823,2.946492954,-1.767959177,-0.963548781,-0.080316991
1.636363287,1.283064553,4.40422E-05,-0.000809937,,,2.049623429,0.733343852,-15.38165534,-39.71333731,1.105504566
1.636363287,1.283064553,4.40422E-05,-0.000809937,,,2.051219245,2.543187441,-3.450837349,-8.205337273,-0.333416943
1.636363287,1.283064553,4.40422E-05,-0.000809937,,,2.052761596,2.826976774,-2.253854755,-3.116885009,-0.215154757
1.636363287,1.283064553,4.40422E-05,-0.000809937,,,2.054323859,2.664730857,-2.923132687,-6.031983283,-0.312491456
1.636363287,1.283064553,4.40422E-05,-0.000809937,,,2.055646587,0.943102905,-13.6116607,-36.09907778,0.901873545
1.64332986,1.514173873,4.25185E-05,-0.000911512,,,2.05684949,2.084814915,-5.740550974,-16.30490372,-0.152736568
1.645058335,2.312962504,1.9133E-05,-0.001151737,,,2.059676322,0.391256204,-18.4651296,-45.54877541,1.446911061
1.647415001,2.649338041,5.41689E-06,-0.001199308,,,2.06005046,0.44437294,-17.9661549,-44.64175995,1.396577958
1.647415001,2.649338041,5.41689E-06,-0.001199308,,,2.06109538,1.106740192,-12.29768037,-33.27292674,0.742461315
1.647415001,2.649338041,5.41689E-06,-0.001199308,,,2.065314969,2.127222007,-5.501934809,-15.55516095,-0.177296101
1.647415001,2.649338041,5.41689E-06,-0.001199308,,,2.066686143,2.205253405,-5.084286696,-14.18342076,-0.22430969
1.647415001,2.649338041,5.41689E-06,-0.001199308,,,2.067451874,2.454438256,-3.853741864,-9.780238837,-0.322284352
1.647415001,2.649338041,5.41689E-06,-0.001199308,,,2.077124903,1.666153087,-8.258522069,-23.58248312,0.20637819
1.647415001,2.649338041,5.41689E-06,-0.001199308,,,2.077813174,1.418379651,-9.952497364,-27.87055246,0.444912417
1.650296433,1.745283193,3.83631E-05,-0.000998855,,,2.081318799,1.709648614,-7.971862897,-22.82288333,0.16891175
1.650296433,1.745283193,3.83631E-05,-0.000998855,,,2.081593624,1.234115634,-11.29938388,-31.04549546,0.630651585
1.664907231,2.73700353,1.92276E-06,-0.001205953,,,2.08454908,1.288539934,-10.8895846,-30.1023578,0.578522937
1.664907231,2.73700353,1.92276E-06,-0.001205953,,,2.088747554,2.830790942,-2.270794919,-3.047104168,-0.21199236
1.673472131,2.070454516,2.8991E-05,-0.001096802,,,2.089357709,1.581636381,-8.808944555,-25.03153747,0.294500276
1.673472131,2.070454516,2.8991E-05,-0.001096802,,,2.090055109,2.95102079,-1.809680795,-0.881896592,-0.074587024
1.675932789,2.191948311,2.4419E-05,-0.001126005,,,2.090309817,2.668545024,-2.918911159,-5.958933801,-0.307742524
1.675932789,2.191948311,2.4419E-05,-0.001126005,,,2.093938532,2.547715276,-3.431242313,-8.114543272,-0.325462424
1.678289454,2.528323847,1.04101E-05,-0.001185175,,,2.095052499,1.966322257,-6.385362187,-18.34486389,-0.04469662
1.678289454,2.528323847,1.04101E-05,-0.001185175,,,2.102339931,0.209325449,-20.1881307,-48.56304319,1.659979813
1.682399462,2.82466902,-1.49795E-06,-0.001210352,,,2.102412137,2.35265186,-4.32474927,-11.56760008,-0.281986906
1.682399462,2.82466902,-1.49795E-06,-0.001210352,,,2.104077732,0.364785612,-18.67392722,-45.91674816,1.514697734
1.688824255,0.314681468,2.0064E-05,-0.00023535,,,2.105544943,0.470317101,-17.68091953,-44.11431287,1.413672644
1.688824255,0.314681468,2.0064E-05,-0.00023535,,,2.108137394,0.626317245,-16.2621125,-41.44273788,1.262068287
1.69005897,0.736273773,3.81027E-05,-0.000513709,,,2.109029963,1.785660241,-7.463859741,-21.4721455,0.117792137
1.690306835,0.525164771,3.03962E-05,-0.000379704,,,2.110159137,2.469387276,-3.777217421,-9.500519706,-0.313893928
1.690306835,0.525164771,3.03962E-05,-0.000379704,,,2.110664758,2.982404918,-1.72168046,-0.316918025,-0.028166023
1.690719196,0.104893823,7.29467E-06,-8.10029E-05,,,2.117527929,2.510002714,-3.595209668,-8.77821636,-0.317967961
1.691763929,0.952146088,4.32965E-05,-0.000639296,,,2.120252644,1.048235987,-12.69920415,-34.18233839,0.848070202
1.695421711,1.172781718,4.58411E-05,-0.000755444,,,2.126657851,1.205583108,-11.46995331,-31.46526059,0.694231198
1.695421711,1.172781718,4.58411E-05,-0.000755444,,,2.128042234,1.939312672,-6.516308034,-18.78321258,-0.003241782
1.699891693,2.91233451,-4.76693E-06,-0.001212501,,,2.132200117,1.312134772,-10.66765135,-29.62201522,0.591344268
1.699891693,2.91233451,-4.76693E-06,-0.001212501,,,2.137608028,2.806466022,-2.403741517,-3.482250196,-0.230672811
1.707133163,1.388446445,4.5922E-05,-0.000856673,,,2.138387966,2.365244646,-4.250395747,-11.32789753,-0.273491715
1.707133163,1.388446445,4.5922E-05,-0.000856673,,,2.138815781,2.681037104,-2.8838872,-5.728720799,-0.297911839
1.709163908,2.407309654,1.58169E-05,-0.001166819,,,2.142152076,1.469258849,-9.529760216,-26.8993939,0.442296732
1.709163908,2.407309654,1.58169E-05,-0.001166819,,,2.144488563,2.213967989,-4.993470671,-13.97935828,-0.194131009
1.710604625,1.95528223,3.38736E-05,-0.001064389,,,2.148779567,0.390793022,-18.38345622,-45.38655044,1.532546468
1.714099736,1.619555765,4.30231E-05,-0.000951666,,,2.14987264,0.443207774,-17.88947843,-44.49101444,1.481909268
1.717383924,3,-7.79661E-06,-0.001212399,,,2.151971532,2.887007462,-2.124369918,-2.034306781,-0.155555635
1.717383924,3,-7.79661E-06,-0.001212399,,,2.154765822,2.596811691,-3.225654201,-7.226239656,-0.31092872
1.740038362,2.28629546,2.14559E-05,-0.001144257,,,2.15999592,0.104067214,-21.19675379,-50.22999459,1.819094606
1.740038362,2.28629546,2.14559E-05,-0.001144257,,,2.161994604,2.059360618,-5.805374215,-16.66254943,-0.078136404
1.747737118,1.840109943,3.85247E-05,-0.001028296,,,2.16298533,0.265714255,-19.57432236,-47.48548339,1.6687502
1.748105059,0.209787645,1.46017E-05,-0.00015922,,,2.168677627,0.568301618,-16.7216913,-42.318304,1.3745364
1.748105059,0.209787645,1.46017E-05,-0.00015922,,,2.169332729,2.913444887,-2.051167799,-1.557951986,-0.124767834
1.748324225,0.419046437,2.6618E-05,-0.000307788,,,2.170161927,0.730538322,-15.28521698,-39.54061504,1.212031713
1.748324225,0.419046437,2.6618E-05,-0.000307788,,,2.172044057,2.109702496,-5.52311284,-15.77720339,-0.109536674
1.75,0,0,0,,,2.17268927,1.230449051,-11.23521127,-30.96034783,0.706063492
1.750822354,0.841863253,4.27884E-05,-0.000575719,,,2.174637105,2.565043308,-3.356312298,-7.784757372,-0.306508738
1.750822354,0.841863253,4.27884E-05,-0.000575719,,,2.175276081,1.282576415,-10.84269734,-30.06014016,0.655387037
1.751070218,0.630754252,3.61317E-05,-0.000447396,,,2.176185086,0.940297375,-13.51298396,-35.93482276,1.00410366
1.751070218,0.630754252,3.61317E-05,-0.000447396,,,2.176349682,0.022185926,-22.03102909,-51.57740399,1.912800439
1.754046962,2.73700353,1.32059E-06,-0.001203583,,,2.180464392,2.226560775,-4.90743647,-13.73299993,-0.183074773
1.754046962,2.73700353,1.32059E-06,-0.001203583,,,2.181721727,1.879641569,-6.823802024,-19.75972969,0.082998619
1.754480136,1.062498883,4.69256E-05,-0.000697872,,,2.184056525,1.103878276,-12.1958268,-33.11389065,0.844113732
1.754480136,1.062498883,4.69256E-05,-0.000697872,,,2.189218139,0.812292267,-14.56571233,-38.10352648,1.14570517
1.755244466,2.612639056,6.79097E-06,-0.001192921,,,2.190132162,2.98517822,-1.836988386,-0.266744401,-0.024008839
1.755244466,2.612639056,6.79097E-06,-0.001192921,,,2.190502206,0.85701047,-14.18785312,-37.33507005,1.101241116
1.759479494,1.277022597,4.81802E-05,-0.00080471,,,2.199271391,1.406153359,-9.918837204,-27.89606384,0.550207415
1.759479494,1.277022597,4.81802E-05,-0.00080471,,,2.2001453,2.448812704,-3.847080258,-9.826964091,-0.277836473
1.770912816,2.165281267,2.71516E-05,-0.001117523,,,2.20064135,0.287622428,-19.32327116,-47.03548122,1.6855739
1.770912816,2.165281267,2.71516E-05,-0.001117523,,,2.200794086,2.736146017,-2.699302407,-4.736067318,-0.267814435
1.770912816,2.165281267,2.71516E-05,-0.001117523,,,2.201157043,2.027297273,-5.952853373,-17.1808572,-0.028299351
1.770912816,2.165281267,2.71516E-05,-0.001117523,,,2.202909062,2.371535802,-4.194235484,-11.18206484,-0.248031443
1.770912816,2.165281267,2.71516E-05,-0.001117523,,,2.206018481,0.545465209,-16.89096921,-42.63269376,1.432012709
1.770912816,2.165281267,2.71516E-05,-0.001117523,,,2.206352637,2.483026418,-3.696666924,-9.221874277,-0.284494032
1.771539193,2.82466902,-2.49579E-06,-0.001207866,,,2.208422892,1.569650978,-8.774078277,-25.07032525,0.394731233
1.777903039,1.493828337,4.71742E-05,-0.000900214,,,2.21475132,2.124651516,-5.412196856,-15.47839063,-0.094168843
1.777903039,1.493828337,4.71742E-05,-0.000900214,,,2.219043953,2.930475682,-2.056999748,-1.251194106,-0.103043363
1.784869612,1.724937656,4.28214E-05,-0.000988575,,,2.222832563,1.124824899,-11.99289358,-32.6828849,0.855565262
1.784869612,1.724937656,4.28214E-05,-0.000988575,,,2.228095146,1.773674839,-7.429359208,-21.52986367,0.213665624
1.786118919,2.491624862,1.24638E-05,-0.001177415,,,2.231139146,1.650649623,-8.213187812,-23.64262048,0.333651098
1.789031424,2.91233451,-6.16832E-06,-0.001209883,,,2.232025732,2.532021592,-3.486334657,-8.348290374,-0.284363096
1.806523654,3,-9.60307E-06,-0.001209631,,,2.233704519,2.796046511,-2.508601358,-3.662434135,-0.230492759
1.807385863,0.104893823,7.9428E-06,-8.07456E-05,,,2.234936546,2.668096657,-2.958283248,-5.94179129,-0.282664633
1.807385863,0.104893823,7.9428E-06,-8.07456E-05,,,2.235333043,1.69414515,-7.926720149,-22.88843846,0.294907102
1.807605029,0.314152615,2.1822E-05,-0.000234226,,,2.235437465,2.264322209,-4.686342907,-13.03236587,-0.174937695
1.80804531,2.05010898,3.26442E-05,-0.001088024,,,2.235557807,1.381253932,-10.06059116,-28.26203834,0.605387109
1.80804531,2.05010898,3.26442E-05,-0.001088024,,,2.237565013,0.129559696,-20.8621058,-49.63473705,1.880219402
1.809087609,0.524635918,3.3054E-05,-0.000378158,,,2.246479977,2.047974907,-5.801837399,-16.77441032,-0.013771788
1.811833602,0.736343732,4.15358E-05,-0.000512099,,,2.248908148,0.703114583,-15.44324307,-39.85011215,1.3104602
1.811833602,0.736343732,4.15358E-05,-0.000512099,,,2.249500451,1.92708638,-6.483914087,-18.85797695,0.090460534
1.81353856,0.952216048,4.71891E-05,-0.00063729,,,2.2500248,2.094987272,-5.543924912,-15.95762239,-0.04835553
1.81353856,0.952216048,4.71891E-05,-0.00063729,,,2.251065716,2.822483935,-2.434215896,-3.188536618,-0.210227818
1.816993373,2.370610669,1.84851E-05,-0.001157677,,,2.254807829,2.636328274,-3.078370031,-6.49955614,-0.281182687
1.818537918,1.166739761,4.99784E-05,-0.000750004,,,2.256406749,0.964256572,-13.23547543,-35.36756096,1.049204756
1.83024937,1.382404488,5.0142E-05,-0.000851233,,,2.262855995,0.393651954,-18.24195735,-45.09908359,1.640839512
1.845177803,1.934936693,3.79594E-05,-0.001054821,,,2.26377678,0.437805198,-17.82523402,-44.34536523,1.596544398
1.845177803,1.934936693,3.79594E-05,-0.001054821,,,2.275221033,0.15146787,-20.6021343,-49.18089894,1.89969828
1.847867827,2.249596475,2.46592E-05,-0.001133738,,,2.275403902,2.200760405,-4.975660715,-14.10116552,-0.108382901
1.847867827,2.249596475,2.46592E-05,-0.001133738,,,2.278972501,0.312089814,-19.00670391,-46.44993334,1.740399365
1.848672915,1.599210228,4.77296E-05,-0.000940514,,,2.282230012,2.860155678,-2.342734426,-2.512145772,-0.176452873
1.848672915,1.599210228,4.77296E-05,-0.000940514,,,2.283291614,0.51919882,-17.05159739,-42.91532503,1.531523657
1.860678924,2.82466902,-3.62344E-06,-0.001205011,,,2.284994601,1.536013469,-8.926298495,-25.52289328,0.491939242
1.860678924,2.82466902,-3.62344E-06,-0.001205011,,,2.286249001,0.680278174,-15.60461996,-40.15996201,1.368127786
1.861876427,2.700304545,2.25122E-06,-0.001197583,,,2.287536766,1.2290627,-11.12868833,-30.77317971,0.805373505
1.863073931,2.575940071,8.48948E-06,-0.001185652,,,2.287679674,1.944504847,-6.349382787,-18.50893644,0.104802869
1.863073931,2.575940071,8.48948E-06,-0.001185652,,,2.289465431,0.026337132,-21.88002965,-51.25955822,2.040689463
1.866666667,0,0,0,,,2.289715848,1.272973853,-10.79760638,-30.01746845,0.762455457
1.866666667,0,0,0,,,2.293224253,2.724913077,-2.773659508,-4.921859251,-0.253456591
1.866666667,0,0,0,,,2.294004038,2.587130505,-3.261822248,-7.354090243,-0.266321848
1.866885833,0.209258792,1.58398E-05,-0.000158291,,,2.295182788,0.985203195,-13.02586671,-34.92903223,1.062285113
1.867105,0.418517584,2.88822E-05,-0.000306387,,,2.295978023,2.346243765,-4.265002084,-11.56022225,-0.18458982
1.867105,0.418517584,2.88822E-05,-0.000306387,,,2.298239725,2.98517822,-2.008379833,-0.266809804,-0.024050356
1.869850992,0.630225398,3.91949E-05,-0.000445552,,,2.302138869,1.14649002,-11.74384189,-32.15643091,0.902986638
1.872596985,0.841933213,4.65267E-05,-0.000573771,,,2.302619644,2.930475682,-2.163101364,-1.250572494,-0.100931308
1.872596985,0.841933213,4.65267E-05,-0.000573771,,,2.304979307,0.805430693,-14.5052076,-37.9809495,1.256215007
1.872596985,0.841933213,4.65267E-05,-0.000573771,,,2.305117646,2.17577178,-5.080766803,-14.50351401,-0.069579115
1.872596985,0.841933213,4.65267E-05,-0.000573771,,,2.306503636,0.858516114,-14.05626997,-37.0704675,1.202888434
1.872596985,0.841933213,4.65267E-05,-0.000573771,,,2.309485804,1.790015363,-7.25116377,-21.13039608,0.264688067
1.872596985,0.841933213,4.65267E-05,-0.000573771,,,2.312360263,1.352463451,-10.1905542,-28.61394796,0.701657034
1.877596343,1.056456926,5.09903E-05,-0.00069226,,,2.313833902,2.756297206,-2.67948432,-4.361190248,-0.236916419
1.878171154,2.91233451,-7.73893E-06,-0.001206886,,,2.31681365,2.687200515,-2.90515084,-5.583802577,-0.254942994
1.88012018,2.143292742,3.01608E-05,-0.001109115,,,2.320532682,2.416096725,-3.943660372,-10.32813229,-0.203665945
1.88012018,2.143292742,3.01608E-05,-0.001109115,,,2.321281017,1.511114042,-9.06047105,-25.8844126,0.549043493
1.882310297,1.819764407,4.29609E-05,-0.001017967,,,2.325094693,2.506729555,-3.567047599,-8.747106897,-0.235081687
1.882310297,1.819764407,4.29609E-05,-0.001017967,,,2.326740019,2.450310439,-3.796398182,-9.729088295,-0.214506521
1.882595701,1.27098064,5.24483E-05,-0.000799056,,,2.334167265,0.052344542,-21.56221018,-50.71757675,2.06654109
1.882595701,1.27098064,5.24483E-05,-0.000799056,,,2.336321154,2.822483935,-2.492993698,-3.181219558,-0.197925489
1.893948385,2.454925877,1.48636E-05,-0.001168748,,,2.336628491,0.20683158,-19.98212648,-48.10248305,1.909187837
1.895663385,3,-1.16226E-05,-0.001206473,,,2.345288026,1.63493672,-8.204135282,-23.72466287,0.447198101
1.901019246,1.48778638,5.1424E-05,-0.000894519,,,2.345316148,0.623419897,-16.04602009,-40.99703648,1.482143108
1.917252674,2.028120455,3.60522E-05,-0.001078778,,,2.347665027,1.807433829,-7.107940171,-20.7720137,0.281665024
1.919442791,1.70459212,4.75207E-05,-0.000977524,,,2.34808133,2.7374231,-2.749997449,-4.688945686,-0.233675549
1.919442791,1.70459212,4.75207E-05,-0.000977524,,,2.349307003,0.778321366,-14.69027585,-38.34437904,1.325078216
1.919442791,1.70459212,4.75207E-05,-0.000977524,,,2.349747338,2.610527904,-3.170951593,-6.92075018,-0.243135242
1.919442791,1.70459212,4.75207E-05,-0.000977524,,,2.350266643,1.68657069,-7.863581148,-22.83360633,0.40085045
1.919442791,1.70459212,4.75207E-05,-0.000977524,,,2.35075888,2.699710538,-2.869101288,-5.353999848,-0.240837821
1.919442791,1.70459212,4.75207E-05,-0.000977524,,,2.350998379,2.041031717,-5.753552991,-16.76697172,0.07348005
1.924822838,2.333911684,2.15031E-05,-0.001147614,,,2.352535056,0.883382058,-13.80142524,-36.54330026,1.219514347
1.924822838,2.333911684,2.15031E-05,-0.001147614,,,2.353714858,2.306728298,-4.412832802,-12.19443219,-0.122136177
1.926166637,0.104364969,8.58106E-06,-8.00533E-05,,,2.353984474,2.080634088,-5.537588892,-16.08353098,0.043011076
1.926166637,0.104364969,8.58106E-06,-8.00533E-05,,,2.358071311,1.038551408,-12.53310206,-33.88154228,1.064897878
1.926385803,0.313623761,2.36258E-05,-0.000233008,,,2.360808477,1.961346126,-6.188250335,-18.11841869,0.151337142
1.927868383,0.524107064,3.57804E-05,-0.000376447,,,2.36269573,2.913444887,-2.277150714,-1.554861024,-0.117228162
1.930614376,0.735814879,4.49539E-05,-0.000509926,,,2.36517057,2.806584728,-2.554584002,-3.460918718,-0.201029782
1.930614376,0.735814879,4.49539E-05,-0.000509926,,,2.374815312,2.147108413,-5.173998267,-14.91672491,0.007300193
1.936654767,0.946174091,5.11071E-05,-0.000631553,,,2.378035168,0.02600741,-21.7929749,-51.05531624,2.145153872
1.936654767,0.946174091,5.11071E-05,-0.000631553,,,2.378342189,2.621066122,-3.131250388,-6.723941351,-0.229684259
1.941654125,1.160697805,5.42294E-05,-0.000744155,,,2.37863108,1.452855579,-9.407082618,-26.76882945,0.66095262
1.953365577,1.376362532,5.44974E-05,-0.0008453,,,2.379394948,2.982404918,-2.140430829,-0.316219421,-0.027557282
1.954385168,1.912948169,4.16905E-05,-0.001044764,,,2.383428602,2.281739672,-4.50976299,-12.59473469,-0.083097324
1.957075192,2.22760795,2.7474E-05,-0.001125406,,,2.38836399,1.605378363,-8.356331727,-24.14950927,0.516854641
1.967310885,2.91233451,-9.48361E-06,-0.001203464,,,2.389963997,2.50652696,-3.546624967,-8.710010826,-0.195568134
1.967310885,2.91233451,-9.48361E-06,-0.001203464,,,2.391545147,2.89754568,-2.343164237,-1.838287403,-0.130062071
1.968508389,2.787970035,-3.24797E-06,-0.001199317,,,2.394464389,0.803630664,-14.42796096,-37.80677753,1.34106643
1.969705892,2.663605561,3.52516E-06,-0.001190626,,,2.395589576,1.707248324,-7.686804035,-22.39976091,0.423005753
1.970903396,2.539241086,1.05529E-05,-0.001177417,,,2.396168112,0.855605934,-13.98808773,-36.91607349,1.288905858
1.970903396,2.539241086,1.05529E-05,-0.001177417,,,2.396250467,0.150123626,-20.489929,-48.91756337,2.033749496
1.971789122,1.593168272,5.19545E-05,-0.000934517,,,2.397617349,0.310772056,-18.8951826,-46.19291749,1.862886615
1.971789122,1.593168272,5.19545E-05,-0.000934517,,,2.401936462,0.517881061,-16.93977241,-42.66021254,1.646892602
1.983333333,0,0,0,,,2.407181896,1.855379396,-6.76214162,-19.8547341,0.291436514
1.984803116,3,-1.3864E-05,-0.001202877,,,2.407278436,0.67893393,-15.49075782,-39.90252852,1.482848349
1.985666607,0.208729938,1.71069E-05,-0.000157298,,,2.409414092,2.388062984,-4.019008165,-10.73970529,-0.126992515
1.985666607,0.208729938,1.71069E-05,-0.000157298,,,2.413642375,2.963530812,-2.228821932,-0.656006916,-0.053799268
1.985885774,0.41798873,3.12008E-05,-0.000304852,,,2.416326523,0.391947395,-18.09734486,-44.76739049,1.79497819
1.985885774,0.41798873,3.12008E-05,-0.000304852,,,2.416782884,2.428678422,-3.84499133,-10.03353679,-0.142569132
1.988631767,0.629696545,4.23315E-05,-0.000443499,,,2.416943592,0.979332978,-12.94813822,-34.75644826,1.181045885
1.988631767,0.629696545,4.23315E-05,-0.000443499,,,2.417247308,0.436100639,-17.68063454,-44.01425765,1.748679881
1.989327545,2.121304217,3.34016E-05,-0.001099997,,,2.417553566,2.785577487,-2.634407561,-3.824354015,-0.194743079
1.989327545,2.121304217,3.34016E-05,-0.001099997,,,2.418558847,2.517065177,-3.496208241,-8.507269677,-0.179477504
1.991517661,1.797775882,4.69354E-05,-0.001007136,,,2.419538358,2.729636944,-2.788280325,-4.808043079,-0.207792324
1.991517661,1.797775882,4.69354E-05,-0.001007136,,,2.421500677,1.140735461,-11.66598691,-31.99478733,1.019999675
1.992112543,0.839151492,5.0205E-05,-0.000569916,,,2.421793879,2.697868561,-2.881762726,-5.363706759,-0.209582511
1.992112543,0.839151492,5.0205E-05,-0.000569916,,,2.428133505,2.636561975,-3.073441625,-6.42993736,-0.203057925
2.00071255,1.05041497,5.51497E-05,-0.000686264,,,2.43172207,1.346708892,-10.11084756,-28.46429754,0.819997088
2.00071255,1.05041497,5.51497E-05,-0.000686264,,,2.433203998,0.1279377,-20.67586512,-49.19962517,2.098690664
2.00177785,2.418226892,1.76383E-05,-0.001159096,,,2.434107543,1.628992941,-8.154891377,-23.65788858,0.537960517
2.00177785,2.418226892,1.76383E-05,-0.001159096,,,2.43535587,2.229029969,-4.722488886,-13.43750495,-0.001649155
2.005711907,1.264938683,5.68356E-05,-0.000792929,,,2.436354512,1.679228932,-7.826138519,-22.79936412,0.490424124
2.005711907,1.264938683,5.68356E-05,-0.000792929,,,2.437943198,2.855897492,-2.473886399,-2.57674683,-0.154477872
2.024135452,1.481744423,5.58133E-05,-0.000888256,,,2.43818431,2.981125894,-2.229521772,-0.339414854,-0.02834411
2.024135452,1.481744423,5.58133E-05,-0.000888256,,,2.441934702,1.221619013,-11.02698367,-30.56991885,0.957291257
2.026460039,2.00613193,3.96809E-05,-0.001068826,,,2.443041821,1.505243825,-8.978163598,-25.74325795,0.670789611
2.034030203,2.311923159,2.40719E-05,-0.001139307,,,2.444113785,1.265530165,-10.6954488,-29.817651,0.914704099
2.037497536,1.69270843,5.16643E-05,-0.000969273,,,2.444687572,2.35839874,-4.12594104,-11.21300338,-0.080495253
2.037497536,1.69270843,5.16643E-05,-0.000969273,,,2.445318204,0.700254027,-15.264466,-39.44449772,1.496830658
2.042833304,0.104364969,9.26337E-06,-7.97345E-05,,,2.450728114,2.441188444,-3.777248499,-9.787185787,-0.121489618
2.045166578,0.313094907,2.54691E-05,-0.000231688,,,2.453699292,0.955934871,-13.10032399,-35.06604582,1.240236354
2.045166578,0.313094907,2.54691E-05,-0.000231688,,,2.458289189,1.795864195,-7.072724311,-20.7748976,0.398664577
2.046649157,0.523578211,3.85665E-05,-0.000374558,,,2.45922416,2.556161025,-3.339243489,-7.802607921,-0.163026495
2.046649157,0.523578211,3.85665E-05,-0.000374558,,,2.466712368,2.892331229,-2.418610053,-1.927186731,-0.122183621
2.050129934,0.733033158,4.83826E-05,-0.000506121,,,2.469253063,1.950004443,-6.15433887,-18.13725401,0.264713477
2.056170325,0.94339237,5.50527E-05,-0.000627344,,,2.475141313,0.284573625,-19.06584116,-46.43985616,1.971377263
2.063592532,1.890959644,4.56234E-05,-0.001034014,,,2.480518443,0.542416406,-16.63247023,-42.04261985,1.697242767
2.063592532,1.890959644,4.56234E-05,-0.001034014,,,2.481575366,1.52513632,-8.803081235,-25.32148265,0.689967501
2.064770332,1.154655848,5.858E-05,-0.000737856,,,2.482076435,2.419623264,-3.847650037,-10.12498566,-0.082812039
2.064770332,1.154655848,5.858E-05,-0.000737856,,,2.483259897,2.13576673,-5.144828606,-14.95870688,0.11704866
2.066282556,2.205619426,3.05327E-05,-0.001116293,,,2.483404685,2.377448997,-4.021121068,-10.84368911,-0.057212479
2.073942847,3,-1.6335E-05,-0.001198792,,,2.487386052,2.907153009,-2.4098576,-1.66243048,-0.106171917
2.073942847,3,-1.6335E-05,-0.001198792,,,2.491019474,0.021908174,-21.71255743,-50.83603234,2.283288232
2.073942847,3,-1.6335E-05,-0.001198792,,,2.491239803,2.780465774,-2.666935901,-3.896662776,-0.164359547
2.073942847,3,-1.6335E-05,-0.001198792,,,2.491274574,2.026360924,-5.711507936,-16.80280963,0.218614183
2.07514035,2.875635525,-9.79964E-06,-0.001197983,,,2.492628837,1.772261164,-7.18444226,-21.10777309,0.457026075
2.07514035,2.875635525,-9.79964E-06,-0.001197983,,,2.493726069,2.511850726,-3.485853498,-8.535250959,-0.117889231
2.076337854,2.75127105,-2.50949E-06,-0.001192582,,,2.494052763,2.270170038,-4.486783462,-12.65807003,0.024140559
2.076337854,2.75127105,-2.50949E-06,-0.001192582,,,2.494260669,2.065963294,-5.497027541,-16.12608705,0.187076061
2.076481783,1.370320575,5.89755E-05,-0.000838817,,,2.498991303,1.111510994,-11.81396493,-32.30479603,1.125690878
2.076481783,1.370320575,5.89755E-05,-0.000838817,,,2.501819742,2.631450261,-3.076587095,-6.475316806,-0.151144991
2.077535357,2.626906576,5.19406E-06,-0.001182615,,,2.50839077,0.804781667,-14.30021621,-37.50058678,1.448781844
2.077535357,2.626906576,5.19406E-06,-0.001182615,,,2.509825955,0.848564699,-13.92970729,-36.75119807,1.404996068
2.078732861,2.502542101,1.30172E-05,-0.001168128,,,2.509965904,0.102764366,-20.84812787,-49.42342665,2.212897925
2.078732861,2.502542101,1.30172E-05,-0.001168128,,,2.511716547,1.367940027,-9.876258386,-27.91827843,0.87930222
2.078732861,2.502542101,1.30172E-05,-0.001168128,,,2.512094844,0.262387699,-19.24188991,-46.71755041,2.034549825
2.078732861,2.502542101,1.30172E-05,-0.001168128,,,2.512273764,2.984100793,-2.327946505,-0.28579626,-0.022019738
2.078732861,2.502542101,1.30172E-05,-0.001168128,,,2.514853629,2.723024796,-2.811253544,-4.88694107,-0.154195473
2.078732861,2.502542101,1.30172E-05,-0.001168128,,,2.517109149,2.691256413,-2.897283468,-5.435023382,-0.149967239
2.089843867,1.581284582,5.6276E-05,-0.000925805,,,2.518558212,0.563736503,-16.39883487,-41.57828279,1.711596997
2.098534909,2.099315692,3.68777E-05,-0.001090104,,,2.520133331,2.493684607,-3.540730443,-8.819900997,-0.085725927
2.098534909,2.099315692,3.68777E-05,-0.001090104,,,2.52374876,0.723425779,-14.9812247,-38.84498022,1.548192612
2.1,0,0,0,,,2.526667362,2.286217633,-4.390354789,-12.33930902,0.045734532
2.102333274,0.208729938,1.84169E-05,-0.000156635,,,2.530271509,0.386555886,-18.02463149,-44.56040711,1.915200094
2.104666548,0.417459876,3.35651E-05,-0.000303172,,,2.530480765,0.928798236,-13.24343364,-35.33079922,1.342902887
2.104666548,0.417459876,3.35651E-05,-0.000303172,,,2.531364582,0.438970638,-17.53057852,-43.66636997,1.858811891
2.104666548,0.417459876,3.35651E-05,-0.000303172,,,2.534916958,2.925421809,-2.420527451,-1.335233463,-0.081319484
2.104666548,0.417459876,3.35651E-05,-0.000303172,,,2.535653062,2.794758129,-2.642483847,-3.633615137,-0.137688727
2.104666548,0.417459876,3.35651E-05,-0.000303172,,,2.535747004,1.088112888,-11.95978976,-32.60799835,1.186277875
2.104666548,0.417459876,3.35651E-05,-0.000303172,,,2.538580031,1.918264419,-6.271139373,-18.54450363,0.367582212
2.108147325,0.626914824,4.54415E-05,-0.000439791,,,2.546306308,1.627280736,-8.054847963,-23.44483345,0.657035565
2.109572407,1.785892192,5.10123E-05,-0.000998641,,,2.548199115,1.66959863,-7.777760498,-22.72512587,0.617390608
2.110985214,2.396238367,1.99026E-05,-0.001150762,,,2.548824681,2.609239522,-3.13290032,-6.820569944,-0.104979794
2.110985214,2.396238367,1.99026E-05,-0.001150762,,,2.550250092,1.387832523,-9.694659909,-27.48643086,0.899829754
2.111628101,0.836369771,5.39489E-05,-0.000565751,,,2.556018003,2.149531353,-5.015885965,-14.60518886,0.182787092
2.111628101,0.836369771,5.39489E-05,-0.000565751,,,2.556326746,2.809579909,-2.613878959,-3.368685951,-0.123393589
2.120228108,1.047633249,5.93116E-05,-0.000681657,,,2.556486531,1.21194578,-10.98420394,-30.45139726,1.082724254
2.128828114,1.258896727,6.13258E-05,-0.00078628,,,2.559073342,1.264073144,-10.59006377,-29.56070766,1.033141311
2.128828114,1.258896727,6.13258E-05,-0.00078628,,,2.559379844,1.546165031,-8.582456364,-24.78504376,0.751776902
2.128828114,1.258896727,6.13258E-05,-0.00078628,,,2.568258407,1.744664987,-7.28214416,-21.41192298,0.566357389
2.128828114,1.258896727,6.13258E-05,-0.00078628,,,2.570954762,0.206704842,-19.72544392,-47.49854051,2.160164855
2.128828114,1.258896727,6.13258E-05,-0.00078628,,,2.572769981,2.410980043,-3.829832655,-10.16080196,0.012638968
2.128828114,1.258896727,6.13258E-05,-0.00078628,,,2.572919679,1.894661388,-6.375122193,-18.87185601,0.428207242
2.135667403,1.984143406,4.3527E-05,-0.001058109,,,2.573888874,2.375453201,-3.973241072,-10.76008841,0.035822321
2.135667403,1.984143406,4.3527E-05,-0.001058109,,,2.574139411,0.360218753,-18.22614533,-44.88558106,1.988750328
2.136592682,2.930276761,-1.43331E-05,-0.001195792,,,2.575231942,2.591073403,-3.181505635,-7.105564562,-0.073346642
2.136592682,2.930276761,-1.43331E-05,-0.001195792,,,2.576521967,0.464279936,-17.24579364,-43.10987367,1.875985749
2.137790185,2.805912286,-6.78044E-06,-0.001192468,,,2.580369074,0.617886943,-15.84773315,-40.48503193,1.714336105
2.138987689,2.681547811,1.3063E-06,-0.001184542,,,2.583092334,2.470949461,-3.593023635,-9.132910581,-0.010318885
2.140185192,2.557183336,9.59732E-06,-0.001172066,,,2.585012862,2.720986841,-2.809265289,-4.882928529,-0.099133836
2.140185192,2.557183336,9.59732E-06,-0.001172066,,,2.587690413,2.683274279,-2.906337212,-5.52545997,-0.089206789
2.142190198,1.469860734,6.02331E-05,-0.000879135,,,2.588213563,2.849990091,-2.55016271,-2.655995639,-0.097900407
2.143237567,2.289934634,2.6897E-05,-0.001130143,,,2.588340714,2.304304195,-4.266109021,-11.93871848,0.100092748
2.143237567,2.289934634,2.6897E-05,-0.001130143,,,2.588632602,2.165578947,-4.910014095,-14.27588693,0.206638457
2.155552282,1.680824741,5.59582E-05,-0.000960335,,,2.59391013,1.03098229,-12.35298129,-33.42093554,1.302943188
2.155552282,1.680824741,5.59582E-05,-0.000960335,,,2.595173884,2.011506735,-5.699421618,-16.85696011,0.346628072
2.156809279,3,-1.88436E-05,-0.001194504,,,2.598718707,2.058519101,-5.445175422,-16.05846689,0.309115333
2.15949997,0.104364969,9.96046E-06,-7.93813E-05,,,2.600119587,1.184169657,-11.15161096,-30.80513813,1.156165829
2.161833244,0.313094907,2.73495E-05,-0.000230649,,,2.604816895,1.287687722,-10.36911155,-29.03929838,1.058234674
2.161833244,0.313094907,2.73495E-05,-0.000230649,,,2.609554797,2.738581923,-2.763874557,-4.567120597,-0.079668767
2.166164715,0.52079649,4.1287E-05,-0.000370997,,,2.612470835,1.440018344,-9.2623835,-26.44387165,0.915730077
2.166164715,0.52079649,4.1287E-05,-0.000370997,,,2.612610925,2.925421809,-2.472968351,-1.329514777,-0.059920898
2.169645492,0.730251437,5.18598E-05,-0.000502041,,,2.612773148,2.984100793,-2.44585266,-0.285800424,-0.01755539
2.171011999,2.477464703,1.50388E-05,-0.001160169,,,2.618858717,0.3858906,-17.93239622,-44.32062263,2.005052222
2.171011999,2.477464703,1.50388E-05,-0.001160169,,,2.619038735,2.661709099,-2.956223677,-5.864945753,-0.05159814
2.175489921,2.183630901,3.38405E-05,-0.001106324,,,2.6201482,0.437537031,-17.44625705,-43.43882209,1.948741273
2.175489921,2.183630901,3.38405E-05,-0.001106324,,,2.625687916,2.546238698,-3.306376474,-7.807309403,4.50638E-05
2.175685883,0.940610649,5.90635E-05,-0.000622766,,,2.627631127,0.102764366,-20.70935835,-49.0930883,2.345251966
2.181647278,1.879075954,4.95853E-05,-0.001025219,,,2.630329574,1.839290034,-6.646012592,-19.67433894,0.547621507
2.18428589,1.151874127,6.29066E-05,-0.000732802,,,2.632124965,0.262387699,-19.10474993,-46.37859506,2.159900236
2.18428589,1.151874127,6.29066E-05,-0.000732802,,,2.635582246,2.809579909,-2.616221362,-3.33857285,-0.065847184
2.194536529,1.358436885,6.34132E-05,-0.000829345,,,2.63593882,1.983487344,-5.815436744,-17.23993645,0.420574549
2.194536529,1.358436885,6.34132E-05,-0.000829345,,,2.636244742,2.211040956,-4.653659705,-13.42154265,0.226894199
2.199242517,2.860553521,-1.14933E-05,-0.001191136,,,2.63743582,2.077569359,-5.312093056,-15.65805322,0.339006797
2.199242517,2.860553521,-1.14933E-05,-0.001191136,,,2.639389077,0.560604132,-16.29755584,-41.28815492,1.833359435
2.20044002,2.736189046,-3.02739E-06,-0.001185273,,,2.642198951,0.720355124,-14.88441284,-38.56129688,1.667399573
2.201637524,2.611824571,5.73997E-06,-0.001174824,,,2.64322283,0.021908174,-21.53078782,-50.41020197,2.462935087
2.201637524,2.611824571,5.73997E-06,-0.001174824,,,2.64536852,1.208582826,-10.92117621,-30.26493259,1.180209277
2.203264353,2.371160969,2.24607E-05,-0.001141883,,,2.646305577,2.719800428,-2.799905367,-4.857082417,-0.037616374
2.207742274,2.077327167,4.05866E-05,-0.001079366,,,2.647479017,1.259973528,-10.53286026,-29.38971825,1.131915676
2.207742274,2.077327167,4.05866E-05,-0.001079366,,,2.648930956,0.925727581,-13.14856282,-35.04990868,1.464709475
2.207742274,2.077327167,4.05866E-05,-0.001079366,,,2.653111964,2.680640166,-2.895436987,-5.511599913,-0.019591723
2.207742274,2.077327167,4.05866E-05,-0.001079366,,,2.656577869,1.084980517,-11.86345489,-32.32552001,1.314076003
2.207742274,2.077327167,4.05866E-05,-0.001079366,,,2.661609504,0.800809687,-14.17621507,-37.134746,1.603868697
2.207742274,2.077327167,4.05866E-05,-0.001079366,,,2.663044689,0.844592718,-13.80629636,-36.38620908,1.560766448
2.207898613,1.569400892,6.0724E-05,-0.00091643,,,2.666540442,2.793758716,-2.638040602,-3.591242736,-0.033840606
2.216666667,0,0,0,,,2.667140936,2.907153009,-2.502706257,-1.642160599,-0.042043172
2.218999941,0.208729938,1.97504E-05,-0.000155899,,,2.669139075,1.381696859,-9.621036126,-27.27255921,1.036775314
2.218999941,0.208729938,1.97504E-05,-0.000155899,,,2.669795702,0.284013201,-18.84981277,-45.89900589,2.173585299
2.219459114,2.930276761,-1.65448E-05,-0.00119118,,,2.671320282,2.585171279,-3.161412117,-7.092938959,0.037623149
2.222304526,0.416153301,3.58869E-05,-0.000300828,,,2.675926413,1.540150256,-8.508570295,-24.58461563,0.890346742
2.222304526,0.416153301,3.58869E-05,-0.000300828,,,2.676139029,0.53807639,-16.46135052,-41.56049726,1.893783769
2.227627152,1.774008502,5.52447E-05,-0.000989375,,,2.677287491,2.465163624,-3.562511517,-9.091068702,0.104630188
2.227662883,0.624133103,4.8583E-05,-0.000435848,,,2.678862692,2.055021376,-5.393504563,-15.94392398,0.410344346
2.227662883,0.624133103,4.8583E-05,-0.000435848,,,2.680910515,2.007951727,-5.641793821,-16.72632762,0.454527116
2.231143659,0.83358805,5.77403E-05,-0.000561252,,,2.682535871,2.298518358,-4.223604727,-11.86609947,0.219015626
2.231143659,0.83358805,5.77403E-05,-0.000561252,,,2.684720942,2.159676823,-4.860140392,-14.18098721,0.329163507
2.232464331,2.532105938,1.14233E-05,-0.001164057,,,2.684804976,1.738650212,-7.207322953,-21.22671272,0.709620289
2.235516706,2.264857236,2.99111E-05,-0.00112037,,,2.68800234,2.981125894,-2.50253357,-0.336367672,-0.009541029
2.239675711,3,-2.15601E-05,-0.001189692,,,2.691808662,1.888525725,-6.299589233,-18.69783505,0.577098981
2.239743666,1.044851528,6.35368E-05,-0.000676613,,,2.694614129,2.403495897,-3.784311584,-10.09047198,0.163881172
2.239743666,1.044851528,6.35368E-05,-0.000676613,,,2.694694755,1.105545732,-11.6650216,-31.86339047,1.334348815
2.247176967,1.253191003,6.5719E-05,-0.000779402,,,2.695733023,2.367969054,-3.924054977,-10.68077717,0.188218608
2.247176967,1.253191003,6.5719E-05,-0.000779402,,,2.697062651,1.619500451,-7.958545718,-23.19251038,0.838881962
2.253722149,1.972259716,4.73213E-05,-0.00104895,,,2.698099132,2.891331816,-2.51289728,-1.912767412,-0.022510478
2.253722149,1.972259716,4.73213E-05,-0.00104895,,,2.698955458,1.661818345,-7.681275775,-22.4772242,0.800526635
2.260244944,1.457977044,6.47519E-05,-0.000869382,,,2.700022958,2.601118469,-3.100190593,-6.785298234,0.067874892
2.260244944,1.457977044,6.47519E-05,-0.000869382,,,2.705076878,1.358350922,-9.754164246,-27.56185629,1.100418013
2.261892352,2.790830282,-7.83625E-06,-0.001184773,,,2.705437475,0.1279377,-20.35609702,-48.4343189,2.400257905
2.261892352,2.790830282,-7.83625E-06,-0.001184773,,,2.719367803,0.693149676,-15.04015506,-38.78712978,1.771892185
2.263089855,2.666465807,1.41601E-06,-0.001176369,,,2.719618193,2.140682808,-4.924185456,-14.41847958,0.39056929
2.263089855,2.666465807,1.41601E-06,-0.001176369,,,2.724753121,2.962344399,-2.510906726,-0.675409264,-0.009778461
2.263291138,2.452387304,1.73255E-05,-0.001151406,,,2.727748891,0.94883052,-12.8815185,-34.41664204,1.522707611
2.263291138,2.452387304,1.73255E-05,-0.001151406,,,2.729692008,1.909134081,-6.146313629,-18.25509057,0.606801095
2.267769059,2.158553503,3.72279E-05,-0.001095692,,,2.732081575,0.388674672,-17.77774718,-43.92753892,2.115142746
2.267769059,2.158553503,3.72279E-05,-0.001095692,,,2.733167812,0.432180695,-17.36981022,-43.18405678,2.066853327
2.273607027,1.668941051,6.0385E-05,-0.000950651,,,2.733428742,2.775777842,-2.653991579,-3.835170166,0.053876102
2.273607027,1.668941051,6.0385E-05,-0.000950651,,,2.737114082,2.7171885,-2.779567066,-4.803194911,0.076488064
2.276166637,0.104364969,1.0669E-05,-7.89921E-05,,,2.738065819,2.480298336,-3.47457792,-8.730209553,0.177958158
2.276166637,0.104364969,1.0669E-05,-7.89921E-05,,,2.742847659,2.684200601,-2.85692626,-5.34276625,0.095562978
2.279471222,0.311788332,2.9168E-05,-0.000228575,,,2.743108212,0.149563202,-20.09014771,-47.95098813,2.413860298
2.282108949,2.860553521,-1.33469E-05,-0.001186151,,,2.74459985,2.272831362,-4.290256047,-12.16137399,0.321003485
2.283802693,0.519489914,4.40693E-05,-0.00036823,,,2.747656367,0.308143282,-18.52499773,-45.24672625,2.224502565
2.28916105,0.727469716,5.53669E-05,-0.000497667,,,2.748929727,2.981218505,-2.51278988,-0.335132426,0.000560378
2.28916105,0.727469716,5.53669E-05,-0.000497667,,,2.751220693,1.511220372,-8.63336176,-24.8528178,1.008365539
2.293916662,2.586747173,7.34077E-06,-0.001166728,,,2.752751566,0.512216377,-16.61250238,-41.75919359,1.997175653
2.295201441,0.937828928,6.31187E-05,-0.000617787,,,2.756117756,0.670621934,-15.19820806,-39.05240236,1.831604083
2.295201441,0.937828928,6.31187E-05,-0.000617787,,,2.756377214,0.02600741,-21.34110311,-49.99591305,2.589210394
2.295543491,2.346083571,2.52716E-05,-0.001132201,,,2.757826103,2.85120956,-2.523106212,-2.55952715,0.056138324
2.299702023,1.867192264,5.37069E-05,-0.001015559,,,2.758339119,1.208208075,-10.81447909,-29.93044031,1.304973138
2.299702023,1.867192264,5.37069E-05,-0.001015559,,,2.760116964,1.251498677,-10.48706085,-29.19440593,1.265776966
2.302325546,2.930276761,-1.89178E-05,-0.001185999,,,2.760323156,2.621041961,-3.018841039,-6.3591522,0.144153159
2.302634743,1.146168404,6.72217E-05,-0.000725838,,,2.762274164,1.758345216,-7.011941144,-20.68255693,0.788893883
2.312885382,1.352731162,6.78891E-05,-0.000821996,,,2.765865777,0.969395735,-12.67751798,-33.94567516,1.54238203
2.315266553,2.066081735,4.38549E-05,-0.001070563,,,2.766768494,2.496245526,-3.404632225,-8.410021039,0.210591776
2.315266553,2.066081735,4.38549E-05,-0.001070563,,,2.772704478,1.127447254,-11.41944917,-31.24827268,1.397877351
2.322542143,3,-2.44859E-05,-0.001184297,,,2.775330428,0.793757246,-14.12081854,-36.89568015,1.725103687
2.324542187,2.721107042,-3.40686E-06,-0.001176666,,,2.777034151,0.845732517,-13.68251746,-36.00711962,1.675074436
2.324542187,2.721107042,-3.40686E-06,-0.001176666,,,2.779497102,2.253837347,-4.348107545,-12.39345041,0.384220085
2.324542187,2.721107042,-3.40686E-06,-0.001176666,,,2.781043789,1.330509878,-9.883781665,-27.7968116,1.215148475
2.324542187,2.721107042,-3.40686E-06,-0.001176666,,,2.784952572,2.40101942,-3.737430423,-9.94484182,0.291581646
2.324542187,2.721107042,-3.40686E-06,-0.001176666,,,2.786280822,2.358845153,-3.900965609,-10.63899547,0.320429162
2.324743469,2.50702854,1.35294E-05,-0.001155187,,,2.787158496,1.487874434,-8.760110118,-25.13370774,1.074419224
2.325953358,1.557517202,6.52762E-05,-0.00090634,,,2.792422936,2.054659135,-5.297084841,-15.66288103,0.562601177
2.325953358,1.557517202,6.52762E-05,-0.00090634,,,2.793560484,2.891709384,-2.467085823,-1.857386754,0.084282554
2.327795844,2.239779838,3.31567E-05,-0.001109805,,,2.794147986,2.01500851,-5.504256459,-16.31672368,0.599139427
2.327795844,2.239779838,3.31567E-05,-0.001109805,,,2.799936792,2.121945998,-4.950127331,-14.52627836,0.516901126
2.333333333,0,0,0,,,2.80015751,1.778953572,-6.850340948,-20.22679327,0.819509841
2.333333333,0,0,0,,,2.801096519,0.051679257,-21.01351763,-49.41943048,2.605423732
2.333333333,0,0,0,,,2.804332732,0.204202806,-19.46793208,-46.82729733,2.409376297
2.336637919,0.207423362,2.09916E-05,-0.00015414,,,2.808028459,1.935957363,-5.92403937,-17.59025626,0.687884737
2.339942504,0.414846725,3.82224E-05,-0.000298327,,,2.808852655,1.609652967,-7.917541753,-23.0262272,0.987785088
2.339942504,0.414846725,3.82224E-05,-0.000298327,,,2.811099624,1.659888958,-7.587789086,-22.17965854,0.944048879
2.344758784,2.790830282,-9.28456E-06,-0.001179367,,,2.81192273,2.539966887,-3.238916891,-7.594115784,0.257769713
2.344758784,2.790830282,-9.28456E-06,-0.001179367,,,2.813926422,2.907608592,-2.458082539,-1.59218343,0.102117383
2.34530086,0.622826527,5.17671E-05,-0.00043261,,,2.814581442,0.614684558,-15.62809325,-39.80996947,1.947544991
2.345681898,1.762124813,5.96132E-05,-0.000979272,,,2.817030597,2.984178807,-2.500460912,-0.29403652,-0.003365115
2.345681898,1.762124813,5.96132E-05,-0.000979272,,,2.818956661,0.767014341,-14.30381485,-37.20367943,1.79572587
2.350659217,0.830806329,6.15573E-05,-0.000556397,,,2.819025802,2.419950487,-3.645845109,-9.55231741,0.331486
2.350659217,0.830806329,6.15573E-05,-0.000556397,,,2.822283084,0.870145686,-13.43507275,-35.44060555,1.697429165
2.350659217,0.830806329,6.15573E-05,-0.000556397,,,2.827009263,2.776147972,-2.623208965,-3.702697404,0.202310731
2.350659217,0.830806329,6.15573E-05,-0.000556397,,,2.827707694,2.336297171,-3.964251066,-10.90889789,0.397098092
2.350659217,0.830806329,6.15573E-05,-0.000556397,,,2.827725303,1.022192546,-12.19443751,-32.84504438,1.557553059
2.350659217,0.830806329,6.15573E-05,-0.000556397,,,2.844499367,1.43064179,-9.10638422,-25.90685435,1.19823537
2.355368994,2.641388409,2.75931E-06,-0.001168147,,,2.844719305,0.025671847,-21.22335595,-49.71473801,2.69035541
2.355368994,2.641388409,2.75931E-06,-0.001168147,,,2.846227921,2.209423399,-4.497809672,-12.95122033,0.515458529
2.355570276,2.427309906,1.98838E-05,-0.001141777,,,2.851514777,1.581938773,-8.061722312,-23.35128028,1.068328908
2.355570276,2.427309906,1.98838E-05,-0.001141777,,,2.851637617,2.400538619,-3.698745451,-9.789362661,0.393435069
2.358092518,1.039145804,6.77031E-05,-0.000669624,,,2.853356323,2.925787751,-2.372203286,-1.251801997,0.155846191
2.361246428,1.961014283,5.09418E-05,-0.00103965,,,2.853903677,2.62141209,-2.982220908,-6.167375207,0.293284864
2.364975381,2.860553521,-1.53139E-05,-0.001180547,,,2.85607132,1.684353341,-7.389493556,-21.62740189,0.980812364
2.364975381,2.860553521,-1.53139E-05,-0.001180547,,,2.858163182,2.717667274,-2.7413978,-4.593787284,0.269862302
2.36552582,1.24748528,7.01627E-05,-0.000771958,,,2.85899126,2.359059569,-3.853203928,-10.45133319,0.430479141
2.36552582,1.24748528,7.01627E-05,-0.000771958,,,2.862229846,2.496623094,-3.35478525,-8.186038284,0.358346186
2.375293338,2.14730807,4.02706E-05,-0.001086525,,,2.862503861,1.83531754,-6.455017138,-19.0949344,0.853265536
2.378593796,1.452271321,6.92613E-05,-0.000861503,,,2.863209561,0.148195147,-19.94829844,-47.5797012,2.542968155
2.385191978,2.930276761,-2.14463E-05,-0.001180185,,,2.863702133,0.791961575,-14.04826944,-36.62455832,1.815960552
2.385191978,2.930276761,-2.14463E-05,-0.001180185,,,2.86389676,2.684679374,-2.815622131,-5.115484385,0.2914852
2.386195801,2.561669775,9.23892E-06,-0.001157709,,,2.865324833,0.84311765,-13.61791265,-35.74993556,1.767760942
2.386195801,2.561669775,9.23892E-06,-0.001157709,,,2.865391415,0.306802181,-18.39643253,-44.87770885,2.343680254
2.38782263,2.321006173,2.83324E-05,-0.001121664,,,2.870486613,0.510875277,-16.49562521,-41.38457708,2.113168003
2.38782263,2.321006173,2.83324E-05,-0.001121664,,,2.876219104,0.669253879,-15.08626484,-38.66714221,1.951218385
2.391661773,1.657057361,6.49201E-05,-0.000940162,,,2.883050894,2.794615058,-2.567409335,-3.303959212,0.300762574
2.391661773,1.657057361,6.49201E-05,-0.000940162,,,2.88437525,0.38693992,-17.61776995,-43.44714545,2.266712114
2.391661773,1.657057361,6.49201E-05,-0.000940162,,,2.885461488,0.430445943,-17.21312315,-42.70216677,2.217490197
2.391661773,1.657057361,6.49201E-05,-0.000940162,,,2.885636805,0.964687906,-12.60145668,-33.61588428,1.673453293
2.391661773,1.657057361,6.49201E-05,-0.000940162,,,2.889701452,2.480270886,-3.395817839,-8.381895007,0.4115743
2.391661773,1.657057361,6.49201E-05,-0.000940162,,,2.890115712,1.122832181,-11.34575558,-30.9257981,1.532774885
2.393804615,0.103058393,1.12545E-05,-7.75928E-05,,,2.896750915,1.605586642,-7.863897899,-22.80338182,1.106122006
2.393804615,0.103058393,1.12545E-05,-7.75928E-05,,,2.898455024,1.325894805,-9.809403445,-27.47743531,1.359281321
2.3971092,0.310481756,3.09886E-05,-0.000226386,,,2.899060488,1.657765219,-7.521410634,-21.92590766,1.062423403
2.397603092,2.716038709,-3.86662E-06,-0.001171174,,,2.899523357,2.257049242,-4.246953409,-12.01087811,0.562381453
2.397603092,2.716038709,-3.86662E-06,-0.001171174,,,2.89995661,0.126286973,-20.11833149,-47.82477476,2.610784814
2.401440671,0.518183338,4.6861E-05,-0.000365254,,,2.903416832,2.810514265,-2.542692299,-2.991109413,0.33743334
2.405408575,3,-2.76189E-05,-0.001178252,,,2.906929523,1.483166605,-8.682769161,-24.81194174,1.22901633
2.405408575,3,-2.76189E-05,-0.001178252,,,2.910213934,1.202238345,-10.71908348,-29.51455907,1.484000418
2.405408575,3,-2.76189E-05,-0.001178252,,,2.910457235,2.984178807,-2.251902466,-0.254153352,0.087194621
2.406799028,0.72616314,5.88947E-05,-0.000493907,,,2.911991778,1.245528947,-10.39149902,-28.77948645,1.447337393
2.406799028,0.72616314,5.88947E-05,-0.000493907,,,2.913911884,0.69026898,-14.86600551,-38.17378114,1.966837327
2.407226302,1.855946832,5.76017E-05,-0.001005816,,,2.91653341,2.601974811,-3.016053355,-6.327974766,0.408662666
2.413550294,0.932123205,6.70666E-05,-0.000610834,,,2.917598227,2.12509461,-4.84051668,-14.12431899,0.688652867
2.413550294,0.932123205,6.70666E-05,-0.000610834,,,2.920183765,1.782165467,-6.722769598,-19.7846758,0.981022993
2.417022608,2.481951142,1.5923E-05,-0.001145388,,,2.921894399,0.941919975,-12.752024,-33.86984706,1.732944659
2.417022608,2.481951142,1.5923E-05,-0.001145388,,,2.922539483,2.850726162,-2.411424383,-2.332414018,0.36873713
2.417819688,2.785761949,-1.01794E-05,-0.001173798,,,2.925582498,2.925787751,-2.276768029,-1.135952515,0.300953275
2.420983596,1.140462681,7.15622E-05,-0.000718352,,,2.925689893,1.939105976,-5.804024633,-17.16619621,0.853107117
2.422790832,2.054836302,4.72642E-05,-0.001060871,,,2.925876069,2.276223877,-4.146695854,-11.6145177,0.590949878
2.422790832,2.054836302,4.72642E-05,-0.001060871,,,2.927195106,2.400753134,-3.654215698,-9.572521246,0.515886313
2.428429899,2.636320076,2.75783E-06,-0.001162346,,,2.933389682,2.365811929,-3.781504178,-10.12447367,0.546254105
2.431234235,1.347025439,7.24117E-05,-0.000814001,,,2.940783411,2.463263811,-3.427735769,-8.512012743,0.506337755
2.435320123,2.228534405,3.5926E-05,-0.001100221,,,2.942190726,0.280910394,-18.54897376,-45.04688585,2.450727307
2.438036285,2.855485188,-1.66898E-05,-0.001174898,,,2.944005016,2.585622603,-3.05196546,-6.516379763,0.463256373
2.444302211,1.551811479,6.97681E-05,-0.000897863,,,2.944621391,2.058731956,-5.150115533,-15.12746715,0.782520017
2.444302211,1.551811479,6.97681E-05,-0.000897863,,,2.945035632,1.503087143,-8.511617869,-24.34157439,1.260501843
2.447849415,2.402232508,2.27118E-05,-0.001131221,,,2.94634644,2.019081331,-5.35415314,-15.77480227,0.817157814
2.447849415,2.402232508,2.27118E-05,-0.001131221,,,2.94720541,2.720990547,-2.714267674,-4.326676366,0.440319449
2.447849415,2.402232508,2.27118E-05,-0.001131221,,,2.948534053,0.534973583,-16.19404883,-40.69228113,2.16163079
2.447849415,2.402232508,2.27118E-05,-0.001131221,,,2.954011797,2.681830285,-2.804128352,-4.936643854,0.459940615
2.447849415,2.402232508,2.27118E-05,-0.001131221,,,2.956397067,1.759768111,-6.827943613,-20.02785354,1.051523113
2.447849415,2.402232508,2.27118E-05,-0.001131221,,,2.957700858,0.021625502,-21.10149801,-49.39431075,2.821654687
2.45,0,0,0,,,2.966340596,1.094868172,-11.49489277,-31.11628152,1.643213841
2.453206177,1.75087938,6.37048E-05,-0.000969143,,,2.969840222,2.299365589,-4.021743221,-11.09199913,0.647426149
2.453206177,1.75087938,6.37048E-05,-0.000969143,,,2.971382016,2.739864653,-2.658904183,-3.956111461,0.482347897
2.454275896,0.206116787,2.22252E-05,-0.000152309,,,2.976233207,0.793344335,-13.9279415,-36.18773465,1.927631271
2.454275896,0.206116787,2.22252E-05,-0.000152309,,,2.976701605,0.10143844,-20.26079593,-47.97404455,2.725012612
2.457580482,0.413540149,4.0556E-05,-0.000295663,,,2.97672272,1.347673362,-9.58206286,-26.82345901,1.435800217
2.457580482,0.413540149,4.0556E-05,-0.000295663,,,2.977094646,2.810514265,-2.549417928,-2.838695097,0.493154248
2.458252882,2.925208428,-2.33545E-05,-0.001174447,,,2.977600141,0.836437292,-13.56672192,-35.45016625,1.888471484
2.458252882,2.925208428,-2.33545E-05,-0.001174447,,,2.978937776,0.25900222,-18.71216234,-45.28589924,2.513978441
2.459256706,2.556601442,9.66216E-06,-0.001151607,,,2.981030874,2.907608592,-2.234357312,-1.307610809,0.495808886
2.462938838,0.621519951,5.49531E-05,-0.000429107,,,2.98116656,2.981218505,-1.755078578,-0.281187878,0.313465815
2.462938838,0.621519951,5.49531E-05,-0.000429107,,,2.982764357,2.544709014,-3.155492345,-7.060451214,0.547697376
2.46810419,0.827761733,6.52959E-05,-0.00055108,,,2.986226833,0.555988684,-15.96661719,-40.19256224,2.174773049
2.46810419,0.827761733,6.52959E-05,-0.00055108,,,2.986623613,2.662418416,-2.845465026,-5.152418514,0.525955483
2.468770707,1.949768851,5.46819E-05,-0.001029484,,,2.99138644,0.713259801,-14.59171191,-37.49221064,2.019664591
2.470663996,2.710970376,-4.29075E-06,-0.001165117,,,2.991842903,2.147967525,-4.674375496,-13.49476286,0.787394074
2.470663996,2.710970376,-4.29075E-06,-0.001165117,,,2.997425277,0.381578411,-17.53468606,-43.12653946,2.38046753
2.476441371,1.033440081,7.18698E-05,-0.00066216,,,2.997798296,0.915395331,-12.89840253,-34.03205568,1.836763522
2.476441371,1.033440081,7.18698E-05,-0.00066216,,,2.99871476,0.433224841,-17.05816465,-42.24014148,2.321610673
2.482443198,3,-3.07118E-05,-0.001171988,,,3.001916718,1.916418797,-5.867057947,-17.26828895,0.985010004
2.482817617,2.136062637,4.34556E-05,-0.001076383,,,3.002598191,1.072100242,-11.64131135,-31.3608919,1.703497375
2.483874673,1.241779557,7.46273E-05,-0.000763913,,,3.005226303,2.731978526,-2.682048088,-3.993669009,0.562844602
2.483874673,1.241779557,7.46273E-05,-0.000763913,,,3.005604464,2.803871134,-2.541720112,-2.854310997,0.567798998
2.490083513,2.476882809,1.67346E-05,-0.001138999,,,3.009540692,2.90096546,-2.280071449,-1.376651225,0.569350928
2.490083513,2.476882809,1.67346E-05,-0.001138999,,,3.009687671,1.604204892,-7.774367158,-22.41236916,1.259169284
2.490880593,2.780693616,-1.10496E-05,-0.001167647,,,3.011633214,1.648159186,-7.485256579,-21.67389757,1.224520729
2.495346909,2.30976074,3.07757E-05,-0.001111604,,,3.014828828,1.367593901,-9.405600517,-26.34213375,1.466150845
2.495346909,2.30976074,3.07757E-05,-0.001111604,,,3.015010847,2.973332379,-1.69675599,-0.392411969,0.551977627
2.496942649,1.446565598,7.38126E-05,-0.000852888,,,3.018195615,2.167142159,-4.565601939,-13.08395202,0.815842378
2.496942649,1.446565598,7.38126E-05,-0.000852888,,,3.019519292,2.466757963,-3.381074595,-8.196441725,0.644275252
2.501490803,2.631251743,2.8037E-06,-0.001155967,,,3.021866526,2.674312571,-2.813648301,-4.855677276,0.595547883
2.507219278,1.65109363,6.92491E-05,-0.000931102,,,3.022893889,1.19374347,-10.68540343,-29.22960121,1.622489612
2.507219278,1.65109363,6.92491E-05,-0.000931102,,,3.023243158,1.524082783,-8.300615696,-23.69392065,1.34516108
2.510471282,0.103058393,1.19646E-05,-7.71314E-05,,,3.024323372,2.589186982,-3.020541241,-6.207030285,0.61383781
2.51109719,2.850416855,-1.80577E-05,-0.001168651,,,3.025004386,1.245134172,-10.29637194,-28.35669204,1.581680021
2.51109719,2.850416855,-1.80577E-05,-0.001168651,,,3.029042236,2.40527292,-3.584832884,-9.159261448,0.688974532
2.514747178,0.30917518,3.27983E-05,-0.000224079,,,3.02920357,2.704712419,-2.744452966,-4.349917629,0.60982645
2.514747178,0.30917518,3.27983E-05,-0.000224079,,,3.03236909,1.730258577,-6.945927947,-20.230502,1.184551096
2.514750581,1.844701399,6.15906E-05,-0.000995239,,,3.035236812,2.370331716,-3.707503495,-9.703599971,0.717430174
2.514750581,1.844701399,6.15906E-05,-0.000995239,,,3.037760288,0.204037815,-19.16413856,-46.00279128,2.642685611
2.519078649,0.516876762,4.96424E-05,-0.00036206,,,3.038130019,1.894021442,-5.964147235,-17.49939427,1.057605594
2.519078649,0.516876762,4.96424E-05,-0.00036206,,,3.041048063,0.355571001,-17.72365165,-43.40405006,2.451989205
2.524244,0.723118544,6.23196E-05,-0.000488799,,,3.041210527,2.2150368,-4.333303641,-12.21310804,0.820435383
2.530315111,2.04359087,5.07953E-05,-0.00105022,,,3.043460232,0.458172075,-16.78053484,-41.64192065,2.334649619
2.530315111,2.04359087,5.07953E-05,-0.00105022,,,3.047291611,0.609450519,-15.43257909,-39.04357204,2.176423387
2.530995267,0.929078609,7.10444E-05,-0.00060493,,,3.048576103,2.302859741,-3.959469865,-10.75136369,0.777769175
2.53231761,2.551533109,1.01375E-05,-0.00114492,,,3.054011368,2.599206403,-2.989259675,-5.94128833,0.67142809
2.53231761,2.551533109,1.01375E-05,-0.00114492,,,3.056270088,2.819565319,-2.490673312,-2.473019795,0.686348806
2.535287505,2.925208428,-2.58971E-05,-0.001167769,,,3.057192555,2.06514546,-5.030095678,-14.60706775,0.952672286
2.539332448,1.134756958,7.58965E-05,-0.000710313,,,3.059240378,2.018075811,-5.270186321,-15.37263265,0.991581495
2.539332448,1.134756958,7.58965E-05,-0.000710313,,,3.059313103,2.894626908,-2.330588263,-1.381953838,0.771805247
2.541245192,2.396495772,2.41432E-05,-0.00112273,,,3.060188705,1.016034966,-12.03416532,-32.07873556,1.814643201
2.541245192,2.396495772,2.41432E-05,-0.00112273,,,3.065935638,1.166715434,-10.85518704,-29.51088149,1.694959901
2.542844403,2.217288973,3.88379E-05,-0.001089566,,,3.069906315,2.771720209,-2.627348606,-3.168256856,0.722251749
2.542844403,2.217288973,3.88379E-05,-0.001089566,,,3.070240524,1.26878204,-10.08255862,-27.77620987,1.616244627
2.543724901,2.705902043,-4.67041E-06,-0.00115844,,,3.071866938,2.488355052,-3.293564957,-7.653436048,0.733028396
2.543724901,2.705902043,-4.67041E-06,-0.00115844,,,3.076946718,2.945384751,-2.164450344,-0.686575624,0.961252917
2.549583087,1.341319716,7.69483E-05,-0.000805318,,,3.077198815,1.419335798,-8.984244133,-25.22470151,1.502261805
2.549583087,1.341319716,7.69483E-05,-0.000805318,,,3.085604068,0.3809748,-17.4356794,-42.79566812,2.462053406
2.559477821,3,-3.39702E-05,-0.001165029,,,3.086726754,0.431929445,-16.96929079,-41.91981196,2.403658226
2.559859716,1.545847748,7.41986E-05,-0.000888635,,,3.08847612,2.087907858,-4.893833935,-14.10741308,0.985564822
2.563941498,2.775625283,-1.18811E-05,-0.001160853,,,3.090104333,2.74875173,-2.663983404,-3.45385907,0.76110524
2.563941498,2.775625283,-1.18811E-05,-0.001160853,,,3.094366828,0.10143844,-20.08880943,-47.5344623,2.842940243
2.566666667,0,0,0,,,3.095555122,1.834047012,-6.265005219,-18.25727718,1.19142431
2.568763682,1.744915649,6.79203E-05,-0.000959414,,,3.098513971,2.170706538,-4.49386452,-12.70931058,0.944151605
2.570942563,0.206116787,2.35662E-05,-0.000151343,,,3.098967896,0.25900222,-18.55645455,-44.82815343,2.626436079
2.574551708,2.62618341,2.90051E-06,-0.001148958,,,3.101554934,2.498374473,-3.254758944,-7.372933033,0.786342372
2.574551708,2.62618341,2.90051E-06,-0.001148958,,,3.102229547,1.991487688,-5.377225935,-15.63402423,1.078679389
2.57521846,0.412233573,4.28698E-05,-0.000292828,,,3.10480583,2.411773753,-3.528287949,-8.757457613,0.821883897
2.57521846,0.412233573,4.28698E-05,-0.000292828,,,3.105576939,0.553168344,-15.86576144,-39.77047156,2.288058886
2.57521846,0.412233573,4.28698E-05,-0.000292828,,,3.108041555,2.284308042,-3.999896085,-10.81472826,0.890025095
2.57521846,0.412233573,4.28698E-05,-0.000292828,,,3.108385047,0.710495029,-14.50281686,-37.07206249,2.134567138
2.57521846,0.412233573,4.28698E-05,-0.000292828,,,3.109904214,0.021625502,-20.86521214,-48.83213759,2.982132187
2.57521846,0.412233573,4.28698E-05,-0.000292828,,,3.110514583,1.190781025,-10.63573363,-28.91962912,1.72695979
2.576294986,1.938523418,5.85173E-05,-0.001018394,,,3.112159473,2.370294704,-3.67003831,-9.39915824,0.853087672
2.576294986,1.938523418,5.85173E-05,-0.001018394,,,3.112708972,1.241456929,-10.25213738,-28.05770291,1.689096813
2.580383811,0.618475355,5.8003E-05,-0.000424264,,,3.114796903,0.912630559,-12.81816348,-33.60501218,1.959996037
2.583479289,2.471146073,1.77781E-05,-0.001130076,,,3.117374733,2.644133264,-2.879928148,-4.980161248,0.803145826
2.585549162,0.824717137,6.90041E-05,-0.000545382,,,3.121948297,1.069279902,-11.56320482,-30.92083343,1.837582283
2.585549162,0.824717137,6.90041E-05,-0.000545382,,,3.122021426,2.591706975,-3.000188732,-5.793003419,0.811577599
2.588131813,2.850416855,-2.00199E-05,-0.001161501,,,3.122348045,2.863109437,-2.484176745,-1.617396798,0.956928774
2.588742685,2.304024004,3.26751E-05,-0.001102659,,,3.123375718,2.081105914,-4.902304687,-14.07222782,1.046067018
2.590341896,2.124817205,4.67617E-05,-0.001065188,,,3.123555327,2.669741549,-2.828240729,-4.553582411,0.822325078
2.590341896,2.124817205,4.67617E-05,-0.001065188,,,3.127574275,0.789768023,-13.81807382,-35.64062736,2.079989347
2.593886344,1.030395485,7.60332E-05,-0.000655603,,,3.127912764,2.164976703,-4.500692694,-12.67854871,0.996189521
2.602223526,1.236073834,7.90775E-05,-0.000755233,,,3.128941209,0.83286098,-13.45925804,-34.9012101,2.043095626
2.602223526,1.236073834,7.90775E-05,-0.000755233,,,3.134520953,1.361859405,-9.349656339,-25.94362621,1.620756739
2.602223526,1.236073834,7.90775E-05,-0.000755233,,,3.136501072,0.280401924,-18.30574615,-44.31255474,2.632250872
2.602223526,1.236073834,7.90775E-05,-0.000755233,,,3.137440348,2.278578207,-4.00655072,-10.78178369,0.943313468
2.602223526,1.236073834,7.90775E-05,-0.000755233,,,3.140048744,2.423667908,-3.475099252,-8.4138839,0.88123786
2.602223526,1.236073834,7.90775E-05,-0.000755233,,,3.140577046,1.518461271,-8.243576568,-23.30074997,1.506040399
2.612322128,2.925208428,-2.85274E-05,-0.001160336,,,3.142023878,0.531062025,-16.02210781,-39.99840172,2.343882603
2.612500154,1.440601866,7.82685E-05,-0.000843564,,,3.147059071,2.36349276,-3.67877477,-9.358005706,0.917890737
2.616785805,2.70083371,-4.99924E-06,-0.001151084,,,3.148713346,2.014228911,-5.223227686,-15.06025664,1.134165179
2.616785805,2.70083371,-4.99924E-06,-0.001151084,,,3.149702977,1.724637065,-6.886034097,-19.8348572,1.356937649
2.616785805,2.70083371,-4.99924E-06,-0.001151084,,,3.151012651,2.711827399,-2.759028508,-3.771454862,0.899440022
2.616785805,2.70083371,-4.99924E-06,-0.001151084,,,3.152206485,2.0559032,-5.007472897,-14.35993187,1.109690359
2.616785805,2.70083371,-4.99924E-06,-0.001151084,,,3.155380054,2.828045779,-2.603043847,-1.996593188,1.021372862
2.616785805,2.70083371,-4.99924E-06,-0.001151084,,,3.157822145,1.888286946,-5.902461625,-17.0935849,1.242127508
2.622776783,1.645129898,7.36065E-05,-0.000921156,,,3.15848423,2.904615995,-2.543857419,-0.880843586,1.224993158
2.622776783,1.645129898,7.36065E-05,-0.000921156,,,3.15877636,2.513755924,-3.198472221,-6.87717869,0.892808289
2.625713387,2.545796373,1.0744E-05,-0.001135532,,,3.159500798,1.089552322,-11.37496434,-30.41601529,1.86267268
2.627137948,0.103058393,1.26719E-05,-7.66295E-05,,,3.161462435,1.596933304,-7.699053931,-21.90236988,1.473021936
2.630308087,1.838737668,6.56392E-05,-0.000984768,,,3.163407978,1.640887598,-7.409075497,-21.16329531,1.441578729
2.631413845,0.30917518,3.46916E-05,-0.000222557,,,3.164444102,2.396487196,-3.556697202,-8.744275296,0.935376514
2.631413845,0.30917518,3.46916E-05,-0.000222557,,,3.17029561,1.338841223,-9.48866019,-26.17214241,1.682975634
2.634640968,2.390759036,2.56423E-05,-0.001113274,,,3.172190086,0.126286973,-19.72794845,-46.80453947,2.879246159
2.634640968,2.390759036,2.56423E-05,-0.001113274,,,3.175578073,2.805077301,-2.649284605,-2.229895864,1.050701295
2.636240179,2.211552237,4.1141E-05,-0.001080217,,,3.179111035,2.188159942,-4.364104803,-12.07049793,1.065370513
2.636512444,3,-3.73715E-05,-0.001157299,,,3.184603058,0.683872328,-14.65745931,-37.20399482,2.2301486
2.636523622,0.513832166,5.22565E-05,-0.000357537,,,3.186476611,2.275982883,-3.990787194,-10.60145333,1.027992545
2.636523622,0.513832166,5.22565E-05,-0.000357537,,,3.189876466,2.1336815,-4.60492773,-12.9126977,1.117055011
2.63783939,2.032345437,5.44212E-05,-0.001038546,,,3.192585573,0.935523323,-12.56840236,-32.88010291,2.020133721
2.63783939,2.032345437,5.44212E-05,-0.001038546,,,3.19697926,1.907443742,-5.765012437,-16.59982183,1.286858191
2.63783939,2.032345437,5.44212E-05,-0.001038546,,,3.198121184,0.383970593,-17.27457766,-42.28392831,2.556785843
2.63783939,2.032345437,5.44212E-05,-0.001038546,,,3.199066915,0.426893868,-16.88625195,-41.54362982,2.507598671
2.63783939,2.032345437,5.44212E-05,-0.001038546,,,3.202411953,2.463783582,-3.332683226,-7.475106836,0.984727197
2.63783939,2.032345437,5.44212E-05,-0.001038546,,,3.206917663,2.336871057,-3.749047876,-9.511599981,1.033949056
2.640976121,2.775625283,-1.32765E-05,-0.001153192,,,3.209723263,0.147686676,-19.46482009,-46.28628614,2.881043897
2.640976121,2.775625283,-1.32765E-05,-0.001153192,,,3.213816634,0.304417106,-17.98275475,-43.58272186,2.668134055
2.641688973,0.720073948,6.56973E-05,-0.000483363,,,3.214162985,2.112451187,-4.688907875,-13.14614758,1.169608392
2.648440239,0.926034013,7.49787E-05,-0.000598573,,,3.216502521,1.49008106,-8.380684155,-23.43251509,1.628014905
2.656777421,1.131712362,8.01921E-05,-0.000703035,,,3.217090607,2.755371517,-2.746787197,-2.764964412,1.099169546
2.656777421,1.131712362,8.01921E-05,-0.000703035,,,3.217694086,2.871990759,-2.706783171,-0.971000945,1.303877231
2.665140593,1.335355984,8.13565E-05,-0.000795973,,,3.218252759,0.505756714,-16.16423234,-40.10869494,2.436795965
2.665140593,1.335355984,8.13565E-05,-0.000795973,,,3.220891307,2.557797612,-3.083578938,-5.867396031,1.012052353
2.665166436,2.850416855,-2.20151E-05,-0.001153531,,,3.221049996,0.661766009,-14.81146027,-37.423117,2.283535629
2.665166436,2.850416855,-2.20151E-05,-0.001153531,,,3.2215625,2.364664976,-3.644318554,-8.987237324,1.04811538
2.667947484,2.620446674,3.01781E-06,-0.001139065,,,3.221894452,1.190485591,-10.55219452,-28.43291926,1.85562073
2.667947484,2.620446674,3.01781E-06,-0.001139065,,,3.222962163,2.44088704,-3.396273282,-7.742554016,1.027254683
2.675417222,1.539884017,7.86267E-05,-0.000878571,,,3.223061352,0.025671847,-20.63810513,-48.31720914,3.086326095
2.676875066,2.465409336,1.88849E-05,-0.001120112,,,3.223742966,1.23317406,-10.22909534,-27.70527976,1.826292066
2.682138462,2.298287268,3.46295E-05,-0.001092763,,,3.227863956,1.746762028,-6.689019663,-19.11134067,1.452078405
2.683333333,0,0,0,,,3.230138074,0.955795743,-12.37583576,-32.36728329,2.041979177
2.683737673,2.119080469,4.94045E-05,-0.001055489,,,3.236335699,1.111126525,-11.14893591,-29.70628484,1.930495196
2.683737673,2.119080469,4.94045E-05,-0.001055489,,,3.239900733,0.783071697,-13.77544969,-35.26534741,2.192134988
2.684321188,1.738951917,7.21564E-05,-0.000948698,,,3.241523433,0.834227772,-13.35207582,-34.38502197,2.150708878
2.68760923,0.206116787,2.48944E-05,-0.000150291,,,3.241671354,2.844724651,-2.759177886,-1.229055023,1.305561674
2.68760923,0.206116787,2.48944E-05,-0.000150291,,,3.245006497,1.311364733,-9.633889129,-26.29173666,1.794613864
2.689356751,2.925208428,-3.12175E-05,-0.001152059,,,3.245265772,2.600270526,-2.996034072,-5.056972981,1.066521789
2.689356751,2.925208428,-3.12175E-05,-0.001152059,,,3.247219471,2.245304275,-4.082908261,-10.8062974,1.144818073
2.691852491,1.932559687,6.23405E-05,-0.001007103,,,3.249882532,2.677918035,-2.866573004,-3.791906968,1.108906066
2.691852491,1.932559687,6.23405E-05,-0.001007103,,,3.251446365,2.625878811,-2.94998785,-4.610483439,1.086392288
2.691954358,0.410903854,4.5124E-05,-0.00028982,,,3.252277177,1.467062878,-8.51443234,-23.64911793,1.69140482
2.691954358,0.410903854,4.5124E-05,-0.00028982,,,3.255170945,2.406355434,-3.495166536,-8.136395982,1.092672585
2.697828784,0.615430759,6.09916E-05,-0.000419149,,,3.266796787,2.005891855,-5.183262916,-14.64076779,1.322433023
2.697828784,0.615430759,6.09916E-05,-0.000419149,,,3.267021071,1.765918824,-6.54252986,-18.60531685,1.49389763
2.702994135,0.821672541,7.26502E-05,-0.000539289,,,3.267617356,0.051075647,-20.31215306,-47.70067456,3.084613045
2.702994135,0.821672541,7.26502E-05,-0.000539289,,,3.269739344,2.040997525,-5.002035961,-14.04782004,1.303266815
2.709572163,2.701200698,-6.10326E-06,-0.001141154,,,3.270423174,0.201817731,-18.86143179,-45.10464602,2.853941874
2.709572163,2.701200698,-6.10326E-06,-0.001141154,,,3.273977267,2.847733892,-2.829403891,-0.953654234,1.38712067
2.711331317,1.027350889,8.01382E-05,-0.000648518,,,3.274027581,1.587511171,-7.67743442,-21.53511872,1.633172645
2.711331317,1.027350889,8.01382E-05,-0.000648518,,,3.276337154,1.639689748,-7.332231256,-20.65538421,1.598685766
2.713547067,3,-4.08791E-05,-0.001148707,,,3.276435092,2.77048641,-2.816043089,-2.16053185,1.259508445
2.713547067,3,-4.08791E-05,-0.001148707,,,3.27797669,2.207599341,-4.223125725,-11.26639959,1.214343779
2.713547067,3,-4.08791E-05,-0.001148707,,,3.279228858,1.92390553,-5.613834287,-15.93130793,1.398058738
2.718638359,1.231497926,8.3407E-05,-0.000746523,,,3.279346194,0.606801224,-15.22540097,-38.10514481,2.385930031
2.718638359,1.231497926,8.3407E-05,-0.000746523,,,3.282759426,2.520752774,-3.172636449,-6.127485279,1.125999445
2.719109163,2.540059637,1.14098E-05,-0.001125015,,,3.283167255,0.756829067,-13.95638159,-35.51689251,2.253806905
2.719109163,2.540059637,1.14098E-05,-0.001125015,,,3.285490303,2.297187393,-3.861790292,-9.757901842,1.182419685
2.728036745,2.3850223,2.71906E-05,-0.001102781,,,3.286102379,0.858293363,-13.11916619,-33.76985884,2.173246045
2.728036745,2.3850223,2.71906E-05,-0.001102781,,,3.290943896,1.007722118,-11.91681396,-31.20346456,2.064243375
2.72805766,1.434638135,8.26907E-05,-0.000833463,,,3.293031471,2.08857521,-4.752745082,-13.14499156,1.308125184
2.72805766,1.434638135,8.26907E-05,-0.000833463,,,3.30013514,2.324981313,-3.754186487,-9.223159271,1.19473402
2.729635956,2.205815501,4.34828E-05,-0.00106994,,,3.302263209,2.186369028,-4.300690911,-11.48718093,1.264166137
2.729635956,2.205815501,4.34828E-05,-0.00106994,,,3.303309636,2.497856232,-3.228775392,-6.380797687,1.161975361
2.733762478,2.775992271,-1.50148E-05,-0.00114281,,,3.303649012,2.77302134,-2.850996557,-1.933807471,1.316418036
2.738334289,1.639166167,7.79522E-05,-0.000910274,,,3.308384728,1.410490207,-8.873227698,-24.32394416,1.802311769
2.738334289,1.639166167,7.79522E-05,-0.000910274,,,3.311222671,0.0254038,-20.48967778,-47.9582286,3.16701535
2.743804615,0.103058393,1.33702E-05,-7.60863E-05,,,3.315913805,2.375676826,-3.57630099,-8.30442035,1.202961042
2.743804615,0.103058393,1.33702E-05,-7.60863E-05,,,3.316496029,1.560186059,-7.830186636,-21.78048397,1.709053359
2.745865592,1.832773936,6.96982E-05,-0.000973204,,,3.317285892,2.450397122,-3.351751062,-7.07382244,1.189131111
2.745865592,1.832773936,6.96982E-05,-0.000973204,,,3.318852391,2.670298101,-2.922504775,-3.488112039,1.241095254
2.748149743,0.30784546,3.64234E-05,-0.000219996,,,3.322820953,1.66243097,-7.151810746,-20.04505296,1.645889733
2.75325952,0.512502446,5.4918E-05,-0.000353898,,,3.32738267,0.781632582,-13.71432865,-34.88654137,2.272412939
2.7545023,2.035467329,5.73401E-05,-0.001028524,,,3.328695094,0.831940803,-13.30055572,-34.01976087,2.233337472
2.7545023,2.035467329,5.73401E-05,-0.001028524,,,3.329087623,0.146593875,-19.29478684,-45.8019901,2.983470737
2.757952794,2.850783843,-2.44666E-05,-0.001142702,,,3.330829214,0.303345836,-17.8420197,-43.09523227,2.763800972
2.759133946,0.717029352,6.89967E-05,-0.000477591,,,3.333376714,1.814495583,-6.202693426,-17.4650163,1.55353276
2.759133946,0.717029352,6.89967E-05,-0.000477591,,,3.334499869,2.819880597,-2.921835282,-0.945472132,1.44496389
2.760733842,2.620813662,2.5069E-06,-0.001128591,,,3.335265339,0.504685443,-16.05025022,-39.606089,2.533294131
2.765885212,0.922989417,7.88335E-05,-0.000591748,,,3.339773823,2.565280033,-3.085178747,-5.059702836,1.230685817
2.765885212,0.922989417,7.88335E-05,-0.000591748,,,3.340414357,0.660673207,-14.71129892,-36.89935329,2.386718271
2.770270842,2.4596726,2.00337E-05,-0.001109026,,,3.342372328,2.264848427,-3.959352049,-9.975142014,1.28639856
2.770270842,2.4596726,2.00337E-05,-0.001109026,,,3.344742563,2.76726208,-2.906395536,-1.729311566,1.381619023
2.773192255,1.127136454,8.43528E-05,-0.000694471,,,3.346066311,2.672833031,-2.940235043,-3.263546259,1.290019596
2.775534239,2.292550532,3.66157E-05,-0.001081855,,,3.347110867,2.595679881,-3.035763013,-4.51747126,1.251214818
2.775534239,2.292550532,3.66157E-05,-0.001081855,,,3.34823747,0.951246329,-12.32340942,-31.88946058,2.161885593
2.781555426,1.330780077,8.5725E-05,-0.000786451,,,3.349480328,0.382584874,-17.10732684,-41.64553175,2.679917062
2.782143109,2.925575416,-3.45094E-05,-0.001140803,,,3.350426058,0.425508149,-16.72637544,-40.90107801,2.630900908
2.782143109,2.925575416,-3.45094E-05,-0.001140803,,,3.352108237,1.106666746,-11.10136064,-29.2286051,2.057710178
2.7851603,3,-4.4228E-05,-0.001139872,,,3.35975736,2.297842864,-3.828451497,-9.331334412,1.298685068
2.790974727,1.533920285,8.30098E-05,-0.000867636,,,3.360779036,1.306904954,-9.586963474,-25.80195275,1.934834968
2.790974727,1.533920285,8.30098E-05,-0.000867636,,,3.360884323,1.582791264,-7.648111131,-21.17671601,1.751759789
2.799878693,1.732988186,7.63692E-05,-0.000936945,,,3.361139908,2.145719543,-4.446248721,-11.8343051,1.376286185
2.799878693,1.732988186,7.63692E-05,-0.000936945,,,3.363498505,2.369908174,-3.581061373,-8.121360177,1.279332641
2.8,0,0,0,,,3.36416918,2.538099322,-3.142654595,-5.349816756,1.264783716
2.8,0,0,0,,,3.364899674,1.632857598,-7.3146889,-20.32057976,1.723020332
2.8,0,0,0,,,3.365273338,2.466561029,-3.304374083,-6.519184526,1.264468708
2.800400583,2.122202361,5.19076E-05,-0.001044445,,,3.365819955,0.124968373,-19.44136037,-46.01433244,3.046309742
2.802358521,2.701567687,-7.24521E-06,-0.001129891,,,3.370376572,1.462513464,-8.464531274,-23.13900102,1.84430681
2.802358521,2.701567687,-7.24521E-06,-0.001129891,,,3.371203095,2.239645713,-4.044319623,-10.22512697,1.341524216
2.804345128,0.204787067,2.60454E-05,-0.000148219,,,3.371649565,1.184716738,-10.49162458,-27.80922942,2.026748165
2.808515401,1.935681579,6.5616E-05,-0.000996992,,,3.373498079,1.227405207,-10.16866297,-27.07828147,2.000979593
2.808690257,0.409574134,4.73174E-05,-0.000286635,,,3.377534487,2.689808598,-2.951545295,-2.762560507,1.352697889
2.808690257,0.409574134,4.73174E-05,-0.000286635,,,3.377660627,0.681567242,-14.50310679,-36.36395283,2.398803781
2.811895521,2.540426625,1.14255E-05,-0.001114053,,,3.37941678,2.598689122,-3.042349107,-4.251438812,1.303935686
2.814564682,0.614101039,6.3991E-05,-0.000414814,,,3.384116806,0.929047407,-12.47481191,-32.09215031,2.211568882
2.820439108,0.818627945,7.61988E-05,-0.000532789,,,3.391687722,2.368034225,-3.579099736,-7.980535372,1.321917783
2.820439108,0.818627945,7.61988E-05,-0.000532789,,,3.392074746,1.752758011,-6.535215594,-18.17893001,1.677778524
2.820439108,0.818627945,7.61988E-05,-0.000532789,,,3.393221058,2.295618281,-3.822940471,-9.169242829,1.34916839
2.820439108,0.818627945,7.61988E-05,-0.000532789,,,3.393462555,2.464687081,-3.307014507,-6.370881497,1.307006362
2.820439108,0.818627945,7.61988E-05,-0.000532789,,,3.397632879,2.535874739,-3.151519092,-5.166054626,1.315153065
2.820439108,0.818627945,7.61988E-05,-0.000532789,,,3.401818659,1.911004018,-5.601246745,-15.4946496,1.583735331
2.821432521,2.379285564,2.87615E-05,-0.001091183,,,3.406509767,2.2593957,-3.951319791,-9.688665282,1.383757861
2.821432521,2.379285564,2.87615E-05,-0.001091183,,,3.407224576,0.277923403,-17.97159676,-43.18979135,2.853831668
2.821432521,2.379285564,2.87615E-05,-0.001091183,,,3.407768472,1.481555681,-8.307377025,-22.62390578,1.87825338
2.821432521,2.379285564,2.87615E-05,-0.001091183,,,3.407777504,2.735744609,-2.970998557,-1.769848084,1.434803734
2.821432521,2.379285564,2.87615E-05,-0.001091183,,,3.410368161,2.640682106,-3.007847599,-3.337479895,1.367023852
2.821432521,2.379285564,2.87615E-05,-0.001091183,,,3.410961287,2.582916868,-3.075159919,-4.294184961,1.344430378
2.826548836,2.776359259,-1.67862E-05,-0.001131001,,,3.412747381,0.528583504,-15.76503854,-38.83205922,2.567703937
2.82774615,1.022774982,8.4069E-05,-0.000640173,,,3.415621272,2.075673699,-4.738491792,-12.68233199,1.496295024
2.835053193,1.226922019,8.76436E-05,-0.000737144,,,3.416037381,2.779111841,-3.002921608,-0.972386878,1.491957721
2.835053193,1.226922019,8.76436E-05,-0.000737144,,,3.421315688,2.558178564,-3.116177625,-4.633577323,1.352336942
2.844472493,1.430062227,8.70452E-05,-0.000823049,,,3.424229963,0.021399703,-20.32705503,-47.54180667,3.268148513
2.846298866,2.208937393,4.55028E-05,-0.001057803,,,3.425370225,1.989203378,-5.165045195,-14.06204724,1.564576703
2.850739151,2.851150832,-2.69199E-05,-0.001130341,,,3.427316884,2.173208215,-4.28904123,-10.99320363,1.4559721
2.850739151,2.851150832,-2.69199E-05,-0.001130341,,,3.427355307,1.079234055,-11.26412245,-29.31463194,2.152332234
2.8535202,2.62118065,1.93553E-06,-0.001116784,,,3.427521102,1.727845935,-6.665339524,-18.39947153,1.742086052
2.853756342,2.925575416,-3.69501E-05,-0.001131016,,,3.428312783,2.024309049,-4.983115235,-13.46138911,1.546087113
2.853891794,1.633202436,8.22399E-05,-0.000898419,,,3.436940686,2.627395844,-3.032401092,-3.364074556,1.394976819
2.853891794,1.633202436,8.22399E-05,-0.000898419,,,3.438150119,1.328522956,-9.379807516,-25.03570356,2.009970093
2.853891794,1.633202436,8.22399E-05,-0.000898419,,,3.438557954,0.783781417,-13.6090852,-34.30969637,2.365355982
2.853891794,1.633202436,8.22399E-05,-0.000898419,,,3.439663516,0.826160157,-13.26333459,-33.5764354,2.334662703
2.853891794,1.633202436,8.22399E-05,-0.000898419,,,3.442723013,0.100379291,-19.54723583,-46.09771512,3.144355176
2.853891794,1.633202436,8.22399E-05,-0.000898419,,,3.443956908,0.256297901,-18.11667949,-43.39522127,2.908883736
2.856773533,3,-4.75396E-05,-0.001130043,,,3.448140573,2.366886722,-3.566636281,-7.639610644,1.400986746
2.860540513,0.101728674,1.38799E-05,-7.45419E-05,,,3.449488374,2.700101659,-3.004361668,-2.041787187,1.451733457
2.860540513,0.101728674,1.38799E-05,-7.45419E-05,,,3.449512659,2.441607018,-3.358767774,-6.383204348,1.38671382
2.862528502,1.835895829,7.32514E-05,-0.000963091,,,3.449993652,0.549477539,-15.55042986,-38.2920598,2.574211238
2.8630572,2.460039589,2.05181E-05,-0.001097639,,,3.454056755,0.704808582,-14.24581631,-35.59128071,2.439730679
2.8630572,2.460039589,2.05181E-05,-0.001097639,,,3.457058588,2.189845249,-4.203077725,-10.53418058,1.487549381
2.864885642,0.306515741,3.80954E-05,-0.000217311,,,3.459242601,0.903593946,-12.62608704,-32.14939592,2.296742793
2.869995419,0.511172727,5.74963E-05,-0.000350025,,,3.461847598,0.377530225,-17.01880595,-41.21141791,2.766177891
2.87116521,2.038589222,6.01699E-05,-0.00101705,,,3.462970284,0.42848487,-16.57414932,-40.32324231,2.708496989
2.87116521,2.038589222,6.01699E-05,-0.00101705,,,3.463234644,1.057035134,-11.41395309,-29.50652723,2.201183133
2.875869844,0.715699632,7.22675E-05,-0.00047249,,,3.464752402,2.31403797,-3.730746593,-8.412948732,1.440356074
2.875869844,0.715699632,7.22675E-05,-0.00047249,,,3.467926898,2.486912889,-3.252765279,-5.497157623,1.406009378
2.882300046,0.918413509,8.24774E-05,-0.000583692,,,3.470635569,1.578264184,-7.606715216,-20.66005928,1.894595164
2.882300046,0.918413509,8.24774E-05,-0.000583692,,,3.474018028,1.620439162,-7.324314627,-19.93447982,1.872162551
2.889607088,1.122560546,8.83934E-05,-0.000685308,,,3.475542018,1.347565174,-9.218738756,-24.51286358,2.040648877
2.892197148,2.295672424,3.80788E-05,-0.001068547,,,3.475946572,2.283524719,-3.832129846,-8.850017106,1.467098734
2.892197148,2.295672424,3.80788E-05,-0.001068547,,,3.476060899,2.686815397,-3.022869156,-2.055046278,1.468739977
2.895144879,2.701934675,-8.46122E-06,-0.001117172,,,3.476660506,2.746392273,-3.039073363,-1.026965769,1.51209557
2.895144879,2.701934675,-8.46122E-06,-0.001117172,,,3.480606373,1.877594453,-5.736044297,-15.5983487,1.712406241
2.89797026,1.326204169,8.99835E-05,-0.000776173,,,3.48277087,1.176441002,-10.48550536,-27.37133738,2.148613956
2.899500217,2.382750063,2.9188E-05,-0.001081864,,,3.48377839,1.499811272,-8.133205194,-21.90333629,1.95916352
2.899500217,2.382750063,2.9188E-05,-0.001081864,,,3.48496526,1.227116906,-10.10224861,-26.49948508,2.12130382
2.904681879,2.540793614,1.13607E-05,-0.001101779,,,3.487876871,2.50570123,-3.215227069,-5.037454553,1.428951712
2.904681879,2.540793614,1.13607E-05,-0.001101779,,,3.497790098,2.082601898,-4.65549275,-12.07050547,1.602401285
2.907389561,1.529344378,8.7295E-05,-0.000856244,,,3.499644444,1.697640854,-6.808319083,-18.49504562,1.85503843
2.907389561,1.529344378,8.7295E-05,-0.000856244,,,3.500648908,2.223758643,-4.043753113,-9.689565301,1.526103051
2.916541603,1.736110078,8.01231E-05,-0.00092692,,,3.501242537,2.595244919,-3.085881179,-3.418900636,1.453613947
2.916541603,1.736110078,8.01231E-05,-0.00092692,,,3.50217786,2.627486912,-3.058734892,-2.86071146,1.46388127
2.916666667,0,0,0,,,3.503129053,0.201907396,-18.52148866,-44.06311085,3.025843408
2.917063492,2.125324253,5.42949E-05,-0.001031823,,,3.505452913,0.351858378,-17.19056041,-41.44824976,2.82549551
2.919335194,2.776726248,-1.86247E-05,-0.001117627,,,3.5071857,0.453288385,-16.31233597,-39.6790109,2.710754465
2.919335194,2.776726248,-1.86247E-05,-0.001117627,,,3.508205014,2.730620019,-3.053462703,-1.032281113,1.521000869
2.921081027,0.203457347,2.71434E-05,-0.000146074,,,3.509964897,2.574405817,-3.110330157,-3.706324518,1.457519707
2.921081027,0.203457347,2.71434E-05,-0.000146074,,,3.5099759,0.602692802,-15.04686701,-37.07548427,2.56704588
2.922352385,2.851150832,-2.87826E-05,-0.001119639,,,3.516052729,1.852682377,-5.855717128,-15.80367153,1.77455135
2.925178311,1.938803471,6.87795E-05,-0.00098549,,,3.520406942,1.002538574,-11.80419972,-30.13507891,2.286952827
2.925369576,2.925575416,-3.93137E-05,-0.001120148,,,3.52113778,2.388674626,-3.48271862,-6.775787421,1.483330211
2.925426155,0.408244414,4.9427E-05,-0.000283273,,,3.525363586,1.150088442,-10.66116889,-27.58879623,2.205993818
2.925426155,0.408244414,4.9427E-05,-0.000283273,,,3.527531803,2.099238932,-4.559589881,-11.60347494,1.629419142
2.928386767,3,-5.0562E-05,-0.001119159,,,3.529353553,1.249722111,-9.908049656,-25.87275335,2.15438187
2.931300581,0.61277132,6.68818E-05,-0.000410183,,,3.532420876,2.673422923,-3.05286767,-1.82238995,1.504620567
2.931300581,0.61277132,6.68818E-05,-0.000410183,,,3.536172697,1.39622602,-8.832531824,-23.3535358,2.080007175
2.936444815,0.815886635,7.95844E-05,-0.000526112,,,3.542889932,1.97274525,-5.174546246,-13.62747429,1.728970639
2.936444815,0.815886635,7.95844E-05,-0.000526112,,,3.543091716,2.529737228,-3.1739471,-4.214270825,1.48394913
2.941124895,2.463504088,2.04878E-05,-0.001087474,,,3.546383071,2.014419539,-4.957614988,-12.90618546,1.706013179
2.944160984,1.018199074,8.78552E-05,-0.0006313,,,3.549686319,0.377186501,-16.91818944,-40.7932258,2.82248012
2.944160984,1.018199074,8.78552E-05,-0.0006313,,,3.55029642,0.427661864,-16.48481685,-39.91206372,2.76553722
2.946306558,2.621547639,1.2596E-06,-0.001103551,,,3.555130273,2.153712799,-4.300732771,-10.50712188,1.629587463
2.946306558,2.621547639,1.2596E-06,-0.001103551,,,3.559176392,2.342221251,-3.6044287,-7.291880144,1.539371251
2.951468026,1.222346111,9.1741E-05,-0.000727082,,,3.560388236,0.100379291,-19.34851168,-45.55920911,3.223529307
2.951468026,1.222346111,9.1741E-05,-0.000727082,,,3.560576055,2.418443315,-3.394376592,-5.984362867,1.515468117
2.960887327,1.42548632,9.12714E-05,-0.000811787,,,3.563987028,0.256297901,-17.95098619,-42.8283811,2.985160351
2.960887327,1.42548632,9.12714E-05,-0.000811787,,,3.567934016,0.547523557,-15.4551303,-37.7394433,2.655111607
2.962961775,2.212059285,4.7375E-05,-0.001043952,,,3.568086389,1.79414929,-6.166874312,-16.46768185,1.877119291
2.962961775,2.212059285,4.7375E-05,-0.001043952,,,3.569005102,1.174087722,-10.45500758,-26.93838621,2.234681469
2.970229937,1.62762863,8.64302E-05,-0.000885621,,,3.569673396,0.702893099,-14.17045885,-35.03480288,2.525367067
2.970229937,1.62762863,8.64302E-05,-0.000885621,,,3.570370562,2.311708001,-3.695506837,-7.730119672,1.563413525
2.970264843,2.299136924,3.88157E-05,-0.001058843,,,3.57080068,1.223045487,-10.08509275,-26.09422766,2.210378243
2.97720718,0.101728674,1.45314E-05,-7.39223E-05,,,3.571213606,2.701523728,-3.072994814,-0.997435293,1.534296656
2.977567912,2.386214562,2.95094E-05,-0.00107164,,,3.573646115,2.245546547,-3.923578772,-8.829499114,1.59892422
2.977567912,2.386214562,2.95094E-05,-0.00107164,,,3.574859242,0.901678463,-12.56650145,-31.57411947,2.393431174
2.979191412,1.839017721,7.66674E-05,-0.000951657,,,3.576433319,0.021399703,-20.04281199,-46.85715575,3.376278419
2.979191412,1.839017721,7.66674E-05,-0.000951657,,,3.580526027,2.437231656,-3.344875247,-5.513312951,1.52838163
2.98162154,0.305186021,3.96888E-05,-0.000214503,,,3.581175008,1.055081152,-11.36022171,-28.90460563,2.30990465
2.98162154,0.305186021,3.96888E-05,-0.000214503,,,3.581689743,2.034169526,-4.835990634,-12.34549961,1.734918104
2.982749574,2.544258113,1.08192E-05,-0.001090707,,,3.584968652,1.943171878,-5.303886311,-13.8563805,1.798978872
2.986731317,0.509843007,5.99629E-05,-0.000345917,,,3.588111409,0.781303684,-13.52090388,-33.58049208,2.481360314
2.986731317,0.509843007,5.99629E-05,-0.000345917,,,3.589216971,0.823682424,-13.17947919,-32.84206354,2.453690358
2.987828119,2.041711114,6.28514E-05,-0.001004038,,,3.591856471,1.338606513,-9.219139073,-24.00930726,2.170706063
2.987828119,2.041711114,6.28514E-05,-0.001004038,,,3.595455818,2.641905452,-3.07604936,-1.83980723,1.52691835
2.987931236,2.702301664,-9.80884E-06,-0.001102901,,,3.597801153,1.49102912,-8.127959412,-21.39255953,2.095022057
2.987931236,2.702301664,-9.80884E-06,-0.001102901,,,3.601248453,0.277633856,-17.71387621,-42.27521566,2.977072776
2.987931236,2.702301664,-9.80884E-06,-0.001102901,,,3.601996146,2.12146474,-4.412879286,-10.73550632,1.701384396
2.987931236,2.702301664,-9.80884E-06,-0.001102901,,,3.60424971,0.525936237,-15.60105074,-37.92930056,2.697236373
2.987931236,2.702301664,-9.80884E-06,-0.001102901,,,3.613667208,1.688858702,-6.7926941,-17.95710819,1.997390629
2.987931236,2.702301664,-9.80884E-06,-0.001102901,,,3.614166653,2.028986616,-4.840250028,-12.21754676,1.774873252
2.987931236,2.702301664,-9.80884E-06,-0.001102901,,,3.614716837,2.476804835,-3.254970458,-4.565456078,1.544475376
2.990948427,2.776726248,-2.01079E-05,-0.001106178,,,3.617937835,1.075297713,-11.18433949,-28.35234276,2.330633109
2.990948427,2.776726248,-2.01079E-05,-0.001106178,,,3.618127298,1.566904217,-7.594986793,-19.98772288,2.074722892
2.991875551,0.712958323,7.52932E-05,-0.000466257,,,3.621509757,1.609079195,-7.309549239,-19.25454972,2.054009709
2.993965618,2.851150832,-3.07025E-05,-0.001107891,,,3.621900262,2.613895715,-3.089193468,-2.107182481,1.533549341
2.993965618,2.851150832,-3.07025E-05,-0.001107891,,,3.625946921,2.240254338,-3.914514874,-8.548228642,1.653522378
2.996982809,2.925575416,-4.15703E-05,-0.001108158,,,3.626770784,1.316134605,-9.365486828,-24.18688154,2.217287773
2.996982809,2.925575416,-4.15703E-05,-0.001108158,,,3.627937076,2.365675345,-3.508253876,-6.383131304,1.591650325
2.998305753,0.9156722,8.60187E-05,-0.000576154,,,3.628643427,1.96172253,-5.175497305,-13.25793274,1.836126659
3,3,-5.2842E-05,-0.001107332,,,3.62935411,2.11709875,-4.414762468,-10.62113806,1.732671139
3,3,-5.2842E-05,-0.001107332,,,3.630622622,2.593056614,-3.102153026,-2.401150125,1.536655834
3.006021922,1.117984639,9.22677E-05,-0.000675538,,,3.632367182,1.843723716,-5.830947296,-15.22631737,1.919590891
3.006021922,1.117984639,9.22677E-05,-0.000675538,,,3.636083332,2.000411331,-4.969172943,-12.55357666,1.81788802
3.014385093,1.321628262,9.40822E-05,-0.000765126,,,3.636369674,2.544155768,-3.148130667,-3.213825457,1.543517554
3.014385093,1.321628262,9.40822E-05,-0.000765126,,,3.638053431,0.124968373,-18.99632615,-44.76297413,3.226318014
3.019192591,2.466968587,2.0329E-05,-0.00107633,,,3.641225785,2.329452764,-3.606872234,-6.906235983,1.618863586
3.023727703,1.523770572,9.14549E-05,-0.000843549,,,3.645154446,0.677135528,-14.32303195,-35.0828393,2.593415969
3.024374253,2.625012138,1.5067E-07,-0.001091504,,,3.651610625,0.924615693,-12.34023769,-30.75680164,2.437874936
3.024374253,2.625012138,1.5067E-07,-0.001091504,,,3.651619885,2.387979171,-3.438547394,-5.815386341,1.599017593
3.032879746,1.730536273,8.41268E-05,-0.000912965,,,3.652751118,2.660754972,-3.080013568,-1.001830369,1.540414184
3.033333333,0,0,0,,,3.653304885,2.235888348,-3.914581991,-8.423748597,1.680480595
3.033726402,2.128446145,5.65007E-05,-0.001017533,,,3.661553364,0.380893998,-16.75640912,-40.16877059,2.8794755
3.033726402,2.128446145,5.65007E-05,-0.001017533,,,3.662067302,0.423413535,-16.39896043,-39.4220348,2.832280141
3.037747693,0.203457347,2.83419E-05,-0.000144773,,,3.669158026,1.859350452,-5.715601412,-14.72067753,1.949316428
3.04102947,2.215523784,4.83722E-05,-0.001033937,,,3.671574654,1.461237054,-8.297370139,-21.44974216,2.188626827
3.04184122,1.941925363,7.17703E-05,-0.000972531,,,3.673702695,2.324269854,-3.605571503,-6.74797505,1.645394261
3.04184122,1.941925363,7.17703E-05,-0.000972531,,,3.675314856,0.146304328,-18.74710564,-44.20941073,3.209845646
3.042162054,0.406914695,5.14279E-05,-0.000279735,,,3.675678734,2.451939987,-3.283785995,-4.508537328,1.58640245
3.042162054,0.406914695,5.14279E-05,-0.000279735,,,3.677910699,0.30198766,-17.40354164,-41.46810348,2.983920402
3.042162054,0.406914695,5.14279E-05,-0.000279735,,,3.677919428,1.175094282,-10.39283473,-26.29470303,2.332395036
3.042162054,0.406914695,5.14279E-05,-0.000279735,,,3.679431991,1.216335421,-10.08133859,-25.57898617,2.314480403
3.042162054,0.406914695,5.14279E-05,-0.000279735,,,3.680321421,0.501433459,-15.73196033,-37.96219927,2.76200987
3.042162054,0.406914695,5.14279E-05,-0.000279735,,,3.68147014,0.655548207,-14.47076826,-35.26385176,2.630917676
3.047306288,0.610030011,6.95053E-05,-0.00040445,,,3.683457893,2.13323331,-4.307566221,-9.962836922,1.77336015
3.048332539,2.302601423,3.94322E-05,-0.001048257,,,3.687294776,2.073742752,-4.573892392,-10.95237853,1.818318492
3.052450522,0.813145326,8.27999E-05,-0.000519029,,,3.688373453,0.944832254,-12.16171214,-30.20001649,2.45315743
3.052450522,0.813145326,8.27999E-05,-0.000519029,,,3.689564718,0.0254038,-19.78786061,-46.25757322,3.433113946
3.053448427,2.745476248,-1.69769E-05,-0.001094041,,,3.690731633,2.383700771,-3.431099784,-5.581208341,1.624511126
3.053448427,2.745476248,-1.69769E-05,-0.001094041,,,3.691327284,1.707527308,-6.625820237,-17.14674809,2.070956766
3.055635607,2.389679061,2.96982E-05,-0.001060473,,,3.692849825,1.097368116,-10.97766999,-27.5422915,2.381053359
3.055635607,2.389679061,2.96982E-05,-0.001060473,,,3.699137681,0.775473516,-13.4942628,-33.07799251,2.557707977
3.056465618,2.819900832,-2.78584E-05,-0.00109612,,,3.699525733,2.356214036,-3.499170698,-5.991187649,1.643884237
3.059482809,2.894325416,-3.89379E-05,-0.001096755,,,3.699944781,1.290817354,-9.516846852,-24.18102802,2.298242842
3.060166691,1.015457765,9.14953E-05,-0.000622823,,,3.700450105,0.825781737,-13.0932231,-32.19588311,2.527606611
3.060817269,2.547722612,1.01225E-05,-0.001078572,,,3.701973736,2.225067058,-3.923909096,-8.247818894,1.726037408
3.060817269,2.547722612,1.01225E-05,-0.001078572,,,3.703687302,2.539060358,-3.138005357,-2.732431759,1.564365923
3.0625,2.96875,-4.99261E-05,-0.001096137,,,3.705756992,2.049671446,-4.675553436,-11.23231408,1.852361922
3.06788286,1.217770204,9.56496E-05,-0.000716334,,,3.706488967,1.438765146,-8.439319815,-21.6153126,2.234368921
3.06788286,1.217770204,9.56496E-05,-0.000716334,,,3.708625766,2.44833594,-3.276771147,-4.300719982,1.601216691
3.06788286,1.217770204,9.56496E-05,-0.000716334,,,3.710888253,2.6292784,-3.076220722,-1.046208926,1.540373295
3.06788286,1.217770204,9.56496E-05,-0.000716334,,,3.721242654,2.604540096,-3.081282398,-1.400679224,1.545188469
3.06788286,1.217770204,9.56496E-05,-0.000716334,,,3.727514364,1.554553037,-7.618773701,-19.51019037,2.195645231
3.06788286,1.217770204,9.56496E-05,-0.000716334,,,3.728118128,1.723154043,-6.503724302,-16.63871396,2.098961264
3.07722547,1.419912514,9.53278E-05,-0.000799285,,,3.730133535,2.286211821,-3.691068573,-6.970809948,1.703777623
3.085962066,2.66868007,-6.59069E-06,-0.001084024,,,3.730901123,1.943938207,-5.199251443,-12.86046675,1.952097974
3.085962066,2.66868007,-6.59069E-06,-0.001084024,,,3.731529715,1.60461937,-7.27654762,-18.63212271,2.1722789
3.08656808,1.622054825,9.04515E-05,-0.000871792,,,3.733798124,0.050731922,-19.47900088,-45.60143347,3.40528787
3.08656808,1.622054825,9.04515E-05,-0.000871792,,,3.735169882,0.200459556,-18.18624886,-42.96312084,3.151336843
3.093873847,0.101728674,1.51523E-05,-7.32613E-05,,,3.736634334,2.535456312,-3.130092644,-2.510380338,1.568618315
3.095529554,1.833443915,8.04081E-05,-0.000936436,,,3.737168365,1.976528956,-5.021151511,-12.25929596,1.934143185
3.097260286,2.470433086,2.00099E-05,-0.001064164,,,3.740018917,0.601633756,-14.86138817,-35.88907196,2.703354844
3.097260286,2.470433086,2.00099E-05,-0.001064164,,,3.740660689,1.867449401,-5.619825222,-14.09734278,2.015845122
3.098288207,0.305186021,4.13361E-05,-0.000212453,,,3.742248401,0.749846994,-13.67101174,-33.28434622,2.598594935
3.098288207,0.305186021,4.13361E-05,-0.000212453,,,3.744091621,0.849781017,-12.87837188,-31.53173502,2.540375654
3.102737024,0.507101698,6.21455E-05,-0.000340736,,,3.747302124,0.996508005,-11.72981484,-28.96479099,2.46799951
3.102737024,0.507101698,6.21455E-05,-0.000340736,,,3.751886397,2.313121024,-3.591582415,-6.32770035,1.696821295
3.104491029,2.044833006,6.53167E-05,-0.000989422,,,3.758772824,2.182565282,-4.047533052,-8.551938475,1.79528579
3.104491029,2.044833006,6.53167E-05,-0.000989422,,,3.760354401,2.600261696,-3.069754893,-1.123854192,1.53939607
3.104491029,2.044833006,6.53167E-05,-0.000989422,,,3.761573237,1.385620454,-8.795029435,-22.17605354,2.309968275
3.104491029,2.044833006,6.53167E-05,-0.000989422,,,3.768961491,1.527876412,-7.781158586,-19.69558374,2.248877108
3.104491029,2.044833006,6.53167E-05,-0.000989422,,,3.76926102,2.459899383,-3.223683062,-3.582507788,1.608349455
3.104491029,2.044833006,6.53167E-05,-0.000989422,,,3.770058353,2.020322371,-4.771907111,-11.27061013,1.928902115
3.104491029,2.044833006,6.53167E-05,-0.000989422,,,3.772927616,2.416185015,-3.308070562,-4.332385353,1.635531588
3.107881259,0.710217014,7.81391E-05,-0.000459687,,,3.77520449,1.623170023,-7.127698776,-18.02727349,2.203758869
3.111794097,2.131910645,5.77093E-05,-0.001007287,,,3.777566739,0.025328123,-19.61519122,-45.8361629,3.473061169
3.111794097,2.131910645,5.77093E-05,-0.001007287,,,3.780335608,2.393030684,-3.355673738,-4.68216754,1.6520962
3.11431146,0.912930891,8.93612E-05,-0.000568143,,,3.784716809,2.137555079,-4.213904652,-9.134863059,1.846910596
3.118965618,2.788650832,-2.48393E-05,-0.001083419,,,3.785781206,0.774945623,-13.4452754,-32.59995432,2.606050816
3.118965618,2.788650832,-2.48393E-05,-0.001083419,,,3.786241507,1.762158813,-6.221348295,-15.57886648,2.129569651
3.119097166,2.218988283,4.92344E-05,-0.001023073,,,3.786312002,0.824571425,-13.05369244,-31.72945228,2.578003495
3.119097166,2.218988283,4.92344E-05,-0.001023073,,,3.790913856,2.527250316,-3.112467349,-2.177307408,1.568532712
3.121982809,2.863075416,-3.62537E-05,-0.001084285,,,3.794029775,0.1459958,-18.55460547,-43.62772574,3.25991167
3.122027629,1.11524333,9.59511E-05,-0.000666042,,,3.794286634,0.301685212,-17.25569144,-40.87761794,3.032012632
3.122027629,1.11524333,9.59511E-05,-0.000666042,,,3.796697356,0.50113101,-15.62497324,-37.34705064,2.814149957
3.122405082,2.591390544,3.81907E-06,-0.001071802,,,3.800185059,0.65523968,-14.38590404,-34.61687488,2.690425772
3.125,2.9375,-4.75972E-05,-0.001083748,,,3.803179025,2.113483773,-4.304136899,-9.411665766,1.878001369
3.126400234,2.306065922,3.99007E-05,-0.001036761,,,3.803604792,2.23123455,-3.826396077,-7.35143438,1.781344051
3.126400234,2.306065922,3.99007E-05,-0.001036761,,,3.803901756,0.941741572,-12.12874331,-29.58258116,2.528785029
3.130723236,1.316054456,9.79682E-05,-0.000752907,,,3.804009583,2.351289684,-3.444472111,-5.226549439,1.686842791
3.130723236,1.316054456,9.79682E-05,-0.000752907,,,3.806101928,1.094338328,-10.95142151,-26.91702626,2.464777188
3.133703302,2.393143561,2.9723E-05,-0.001048332,,,3.811675475,1.550504541,-7.602710686,-19.02573,2.275567007
3.133703302,2.393143561,2.9723E-05,-0.001048332,,,3.812088987,0.380502772,-16.58798278,-39.39245718,2.942961872
3.133703302,2.393143561,2.9723E-05,-0.001048332,,,3.812602925,0.423022308,-16.24169637,-38.63887754,2.896848492
3.133703302,2.393143561,2.9723E-05,-0.001048332,,,3.813196885,1.287787566,-9.490782666,-23.52865538,2.393630094
3.133703302,2.393143561,2.9723E-05,-0.001048332,,,3.813903123,1.595731817,-7.291524665,-18.2361029,2.253809682
3.140065846,1.518196767,9.54104E-05,-0.000829917,,,3.82201727,1.435674464,-8.407390052,-20.92685577,2.338929568
3.149217889,1.724962467,8.79384E-05,-0.000897871,,,3.823024211,2.572009973,-3.052893618,-1.065053346,1.531886954
3.15,0,0,0,,,3.824414286,1.171175164,-10.36018446,-25.4726135,2.446998999
3.151479257,2.711854654,-1.4037E-05,-0.001074093,,,3.825357654,2.258143753,-3.713306808,-6.701975481,1.767382283
3.15441436,0.203457347,2.94736E-05,-0.000143386,,,3.825926848,1.212416303,-10.04871987,-24.74944537,2.432247506
3.15441436,0.203457347,2.94736E-05,-0.000143386,,,3.830899669,0.124596097,-18.67198734,-43.82070439,3.308061199
3.158179363,1.936351558,7.51598E-05,-0.000955922,,,3.836358151,1.700335026,-6.583158521,-16.28870895,2.212830345
3.158179363,1.936351558,7.51598E-05,-0.000955922,,,3.83685631,0.676382313,-14.19270686,-34.03876551,2.691277912
3.158181616,0.405852516,5.33108E-05,-0.00027621,,,3.839467445,0.920505465,-12.27733638,-29.74179075,2.558016188
3.158181616,0.405852516,5.33108E-05,-0.00027621,,,3.845373284,2.069654344,-4.469650696,-9.850007635,1.940287145
3.158848099,2.514101018,1.4164E-05,-0.001058147,,,3.846768109,1.845079975,-5.674700136,-13.72701707,2.123492656
3.163311995,0.607288702,7.19452E-05,-0.000398448,,,3.853948797,2.495732845,-3.109427599,-2.183839739,1.573812986
3.163311995,0.607288702,7.19452E-05,-0.000398448,,,3.856335106,2.18760918,-3.946394509,-7.696262364,1.840112312
3.16845623,0.810404017,8.58042E-05,-0.000511546,,,3.857998761,1.454735992,-8.254808149,-20.36010683,2.359258072
3.16845623,0.810404017,8.58042E-05,-0.000511546,,,3.860808672,2.308787909,-3.518913379,-5.507632998,1.731111043
3.172021468,2.101492388,6.16818E-05,-0.00099206,,,3.868154128,1.915002711,-5.253951379,-12.36246224,2.085424474
3.172021468,2.101492388,6.16818E-05,-0.00099206,,,3.868957183,1.677221576,-6.714342317,-16.45669345,2.2535717
3.176172398,1.012716456,9.49071E-05,-0.000613803,,,3.870498996,0.276934102,-17.35822937,-40.91774185,3.087462317
3.176172398,1.012716456,9.49071E-05,-0.000613803,,,3.873500252,0.525236483,-15.3633432,-36.50067065,2.819140305
3.179324536,2.188570027,5.32627E-05,-0.001008106,,,3.87442137,1.94759346,-5.068193822,-11.75055815,2.062790404
3.182672904,1.213348272,9.92688E-05,-0.000705108,,,3.876165773,1.997952946,-4.798631279,-10.86206208,2.020905131
3.182672904,1.213348272,9.92688E-05,-0.000705108,,,3.878251785,2.159033895,-4.041850244,-8.023714701,1.874547617
3.183992895,2.635058475,-3.19174E-06,-0.001063387,,,3.879960996,1.068287914,-11.12212571,-26.91462027,2.519710441
3.183992895,2.635058475,-3.19174E-06,-0.001063387,,,3.882158144,2.219553362,-3.799834738,-6.920350765,1.817979863
3.184482809,2.831825416,-3.34706E-05,-0.001070826,,,3.882473696,2.46253663,-3.136458316,-2.533838548,1.591594727
3.184482809,2.831825416,-3.34706E-05,-0.001070826,,,3.888697361,2.387123146,-3.282834576,-3.855152493,1.658511444
3.186627605,2.275647665,4.39414E-05,-0.001022047,,,3.888793945,1.309124806,-9.303879895,-22.67097105,2.439789298
3.1875,2.90625,-4.53932E-05,-0.001070292,,,3.889881688,2.439382299,-3.171153918,-2.891510575,1.609941772
3.193563613,1.414338709,9.9146E-05,-0.000785944,,,3.890624879,0.021335954,-19.42161442,-45.35285976,3.517899821
3.193563613,1.414338709,9.9146E-05,-0.000785944,,,3.895620146,0.779015359,-13.35145486,-31.89255633,2.652636068
3.193930673,2.362725304,3.37278E-05,-0.001033861,,,3.896067279,0.820819241,-13.0256541,-31.15375899,2.631277093
3.193930673,2.362725304,3.37278E-05,-0.001033861,,,3.904561723,2.531241217,-3.02435907,-1.059662889,1.519342439
3.195291115,2.436811492,2.43493E-05,-0.001043103,,,3.907368889,0.255534398,-17.4811358,-41.1045046,3.125175579
3.195291115,2.436811492,2.43493E-05,-0.001043103,,,3.908114979,0.100080265,-18.73928081,-43.86613624,3.371268053
3.202906223,1.616481019,9.4244E-05,-0.000856933,,,3.910171504,0.546379116,-15.16534211,-35.92179948,2.811872134
3.202906223,1.616481019,9.4244E-05,-0.000856933,,,3.911419048,2.090664756,-4.31044339,-8.962850018,1.952593974
3.210540513,0.101728674,1.57346E-05,-7.25599E-05,,,3.911747531,2.294697415,-3.513383755,-5.327079935,1.746971882
3.210540513,0.101728674,1.57346E-05,-7.25599E-05,,,3.912032245,0.70080721,-13.9525748,-33.17706039,2.703054844
3.211867697,1.82787011,8.39291E-05,-0.000919964,,,3.914129606,0.896896095,-12.42733176,-29.70717279,2.603470662
3.211867697,1.82787011,8.39291E-05,-0.000919964,,,3.914651054,1.807595938,-5.851164717,-13.87607893,2.200573779
3.214307769,0.304123842,4.27409E-05,-0.000209587,,,3.914743613,2.208972945,-3.807243777,-6.838708687,1.834829052
3.216996448,2.755029238,-2.23017E-05,-0.001062234,,,3.915470185,2.17143161,-3.954316754,-7.501130188,1.873283179
3.218756587,0.506039519,6.43056E-05,-0.000336363,,,3.915526685,1.047051807,-11.27181676,-27.06387507,2.546008424
3.220435912,2.55776895,7.61458E-06,-0.001050503,,,3.916610962,1.550079219,-7.55330457,-18.31400188,2.359039252
3.223886966,0.707475705,8.0767E-05,-0.000452789,,,3.918487493,1.588177862,-7.287759919,-17.64229489,2.341186227
3.223886966,0.707475705,8.0767E-05,-0.000452789,,,3.923882772,0.376214004,-16.49707894,-38.8692029,2.978322267
3.226040481,2.032040982,6.89875E-05,-0.0009689,,,3.924492873,0.426689367,-16.09672221,-37.9679967,2.924671027
3.226040481,2.032040982,6.89875E-05,-0.0009689,,,3.924775436,1.328186334,-9.150070537,-22.10190381,2.456336923
3.230317168,0.910189582,9.246E-05,-0.000559666,,,3.930351116,1.475032098,-8.078152739,-19.51689801,2.403134077
3.230317168,0.910189582,9.246E-05,-0.000559666,,,3.933157154,1.16434571,-10.37351277,-24.90075639,2.515720465
3.236817673,1.110821398,9.93055E-05,-0.000655263,,,3.934952732,1.213303474,-10.00363953,-24.03451035,2.50093212
3.239551907,2.15815177,5.72708E-05,-0.000992705,,,3.939153331,1.653740874,-6.829251221,-16.36049125,2.319436376
3.239551907,2.15815177,5.72708E-05,-0.000992705,,,3.939196944,2.285784662,-3.512739007,-5.251583807,1.754870059
3.24551328,1.311632524,0.000101537,-0.000740556,,,3.942771158,2.101108367,-4.230857907,-8.525528922,1.952588546
3.246854976,2.245229409,4.79838E-05,-0.001006867,,,3.947250085,1.784482488,-5.971281428,-14.03427507,2.238913382
3.249510086,2.678233059,-1.09989E-05,-0.001052334,,,3.947822354,2.396026301,-3.202513851,-3.1645083,1.632740165
3.25,2.875,-4.30854E-05,-0.001055958,,,3.95125002,1.997916932,-4.729914852,-10.27788781,2.059147246
3.25,2.875,-4.30854E-05,-0.001055958,,,3.96303764,2.498920077,-3.002876424,-1.112361741,1.511135828
3.25,2.875,-4.30854E-05,-0.001055958,,,3.967231731,0.201305921,-17.82731149,-41.75731183,3.213928727
3.254158044,2.332307047,3.77566E-05,-0.001018893,,,3.967651388,0.350810204,-16.6477119,-39.08473121,3.014963835
3.254158044,2.332307047,3.77566E-05,-0.001018893,,,3.968025679,0.451787995,-15.85639409,-37.28109855,2.908285963
3.255518486,2.406393236,2.8324E-05,-0.001028337,,,3.968710684,0.600304464,-14.6985646,-34.63231726,2.784640791
3.256403989,1.512622961,9.91023E-05,-0.000815361,,,3.969822388,1.889795636,-5.313121653,-12.02762416,2.167661274
3.256403989,1.512622961,9.91023E-05,-0.000815361,,,3.97183174,2.471433341,-3.032097592,-1.544113882,1.53549502
3.256878928,2.480479424,1.82845E-05,-0.001036272,,,3.97292941,0.994726419,-11.65230253,-27.62305352,2.589353508
3.256878928,2.480479424,1.82845E-05,-0.001036272,,,3.975271767,2.387113548,-3.191821709,-3.079638552,1.63078982
3.265556031,1.719388662,9.14947E-05,-0.000881648,,,3.975377535,1.139136118,-10.55111727,-25.06854672,2.544452423
3.265556031,1.719388662,9.14947E-05,-0.000881648,,,3.977262293,1.928484436,-5.083817616,-11.29194121,2.136469391
3.266666667,0,0,0,,,3.977666716,1.235931603,-9.820158343,-23.35757408,2.516472839
3.266666667,0,0,0,,,3.981974763,1.37719921,-8.768507407,-20.86102786,2.473203972
3.266666667,0,0,0,,,3.98260213,2.008360544,-4.644153296,-9.84384885,2.060833323
3.270433922,0.202395168,3.03733E-05,-0.000141206,,,3.985654661,2.206095733,-3.74036752,-6.291571176,1.842135332
3.274201178,0.404790336,5.50368E-05,-0.000272516,,,3.986266713,2.174471588,-3.864943143,-6.855830959,1.879088616
3.274201178,0.404790336,5.50368E-05,-0.000272516,,,3.989565249,2.266980984,-3.516606336,-5.154522217,1.769109161
3.279331557,0.606226522,7.43061E-05,-0.000393152,,,3.992436192,2.118642048,-4.097368296,-7.804647238,1.943873764
3.279728815,1.923559534,7.89612E-05,-0.000935401,,,3.999679933,1.736662037,-6.240228605,-14.47298241,2.304303451
3.282023725,2.601436881,2.85849E-07,-0.001041126,,,4.004417209,2.460852924,-3.010383943,-1.43534497,1.52365602
3.282023725,2.601436881,2.85849E-07,-0.001041126,,,4.008521021,1.86235743,-5.44225123,-12.20733094,2.210427557
3.282513638,2.798203822,-3.15319E-05,-0.001048231,,,4.011237421,0.426907189,-16.00777198,-37.48588266,2.938649189
3.282513638,2.798203822,-3.15319E-05,-0.001048231,,,4.011473231,0.37640476,-16.39860607,-38.38839754,2.991533351
3.284461937,0.807662708,8.85552E-05,-0.000503674,,,4.014480693,1.940882151,-4.978311091,-10.77942231,2.139951527
3.284461937,0.807662708,8.85552E-05,-0.000503674,,,4.017453938,2.345316221,-3.244771164,-3.468405085,1.661738986
3.284461937,0.807662708,8.85552E-05,-0.000503674,,,4.0177968,1.16391893,-10.35135027,-24.35546646,2.555487513
3.284461937,0.807662708,8.85552E-05,-0.000503674,,,4.018290403,1.211756651,-9.990175943,-23.51091275,2.542353102
3.284461937,0.807662708,8.85552E-05,-0.000503674,,,4.023228681,2.04694065,-4.403355869,-8.828869724,2.03007913
3.284461937,0.807662708,8.85552E-05,-0.000503674,,,4.025780203,0.100080265,-18.52722839,-43.26640311,3.387215649
3.290962442,1.008294524,9.7953E-05,-0.000603542,,,4.026316724,0.70091538,-13.88479862,-32.50529324,2.731639526
3.29357092,2.088700364,6.50093E-05,-0.000970263,,,4.026752932,0.54648946,-15.07144262,-35.25981908,2.834617586
3.297462948,1.20892634,0.000102603,-0.000693235,,,4.027167616,2.472567406,-2.962758107,-0.997857189,1.489358581
3.297462948,1.20892634,0.000102603,-0.000693235,,,4.02739901,0.255534398,-17.31565187,-40.46835102,3.141481062
3.307082347,2.214811152,5.20075E-05,-0.000991262,,,4.028414085,0.897004265,-12.38066687,-29.00471166,2.641780507
3.307082347,2.214811152,5.20075E-05,-0.000991262,,,4.032108113,1.047162151,-11.23341898,-26.32159052,2.593587571
3.308353657,1.409916777,0.000102609,-0.00077238,,,4.036048843,1.323730376,-9.146701445,-21.42365837,2.517922716
3.3125,2.84375,-4.06338E-05,-0.001040909,,,4.039432155,1.470663933,-8.064610837,-18.82459887,2.469034499
3.314385415,2.301888791,4.17884E-05,-0.001003469,,,4.042828234,0.021335954,-19.10909843,-44.59346545,3.540127432
3.314385415,2.301888791,4.17884E-05,-0.001003469,,,4.043450411,0.779155281,-13.27630528,-31.00841532,2.694351512
3.315027277,2.721407644,-1.97536E-05,-0.00103924,,,4.043897544,0.820959162,-12.9562706,-30.26110747,2.675689188
3.315027277,2.721407644,-1.97536E-05,-0.00103924,,,4.048234371,1.64937271,-6.794735668,-15.63272607,2.386423996
3.315745857,2.375974979,3.23212E-05,-0.001013087,,,4.048765945,1.924004591,-5.04058287,-10.80286907,2.168335891
3.317106299,2.450061167,2.22029E-05,-0.001021186,,,4.050178695,2.387334279,-3.095754381,-2.384483186,1.585359582
3.318466741,2.524147355,1.14554E-05,-0.001027749,,,4.050246178,1.884168671,-5.273237691,-11.49472795,2.207674322
3.318466741,2.524147355,1.14554E-05,-0.001027749,,,4.057509058,2.008581275,-4.562192594,-9.229776486,2.079648347
3.319244366,1.610907214,9.77464E-05,-0.000841064,,,4.057710429,1.544428872,-7.525870921,-17.40019177,2.446373475
3.319244366,1.610907214,9.77464E-05,-0.000841064,,,4.058523493,1.78002653,-5.915086637,-13.26303539,2.301257657
3.319244366,1.610907214,9.77464E-05,-0.000841064,,,4.059586959,1.582527516,-7.254503254,-16.71878657,2.428612013
3.319244366,1.610907214,9.77464E-05,-0.000841064,,,4.062996321,2.267197366,-3.420445364,-4.499261441,1.74566114
3.319244366,1.610907214,9.77464E-05,-0.000841064,,,4.063153725,0.525530317,-15.20314833,-35.42719967,2.854632243
3.319244366,1.610907214,9.77464E-05,-0.000841064,,,4.064313741,0.277094792,-17.10017676,-39.88334076,3.113907819
3.326560076,0.100666494,1.61049E-05,-7.10862E-05,,,4.065867264,2.11885843,-4.007230976,-7.180436222,1.945690942
3.326560076,0.100666494,1.61049E-05,-7.10862E-05,,,4.067841338,1.068038747,-11.06458763,-25.72050773,2.598376837
3.330327331,0.303061663,4.40092E-05,-0.000206607,,,4.069343228,2.397202348,-3.046267602,-2.019095699,1.556381814
3.333417149,1.815078086,8.77479E-05,-0.000899569,,,4.070269506,1.303365832,-9.288542375,-21.5451343,2.537939913
3.334776149,0.50497734,6.62658E-05,-0.00033177,,,4.080639868,2.20637563,-3.616830167,-5.45972342,1.824503516
3.339906528,0.706413526,8.3258E-05,-0.000446492,,,4.08125192,2.174751485,-3.743147956,-6.03252709,1.868423612
3.339906528,0.706413526,8.3258E-05,-0.000446492,,,4.086390337,1.994363922,-4.604995998,-9.2443786,2.100288489
3.345013638,2.766953822,-2.85971E-05,-0.001032851,,,4.087187361,2.444740352,-2.924600164,-0.94848803,1.469707374
3.345107212,0.905767651,9.51612E-05,-0.000549989,,,4.093672014,1.798399926,-5.767988927,-12.66385682,2.29982131
3.345107212,0.905767651,9.51612E-05,-0.000549989,,,4.101268003,0.676632578,-14.02777591,-32.49508426,2.754119841
3.347540915,2.644611465,-7.93587E-06,-0.001028975,,,4.103133145,0.124596097,-18.20206143,-42.42599787,3.344056097
3.347540915,2.644611465,-7.93587E-06,-0.001028975,,,4.103879137,0.920755731,-12.1733415,-28.1097252,2.648742089
3.347589933,2.019248959,7.23801E-05,-0.000946878,,,4.107348747,2.391604234,-3.001748601,-1.764316957,1.530966839
3.347589933,2.019248959,7.23801E-05,-0.000946878,,,4.109089079,2.286285289,-3.289720532,-3.726930299,1.693154498
3.351607717,1.106399466,0.000102353,-0.000643926,,,4.110371635,1.444629688,-8.228187335,-18.77033034,2.509057363
3.360303324,1.307210593,0.000104792,-0.000727489,,,4.112663293,2.101608995,-4.024918007,-7.090355703,1.963436918
3.361101359,2.145359746,6.01905E-05,-0.000969548,,,4.121330056,1.667115271,-6.627514004,-14.76447892,2.406448976
3.371194033,1.508201029,0.000102401,-0.00080049,,,4.12274211,0.423983491,-15.9201062,-36.9168193,2.945621965
3.371194033,1.508201029,0.000102401,-0.00080049,,,4.122940752,0.381441155,-16.23960286,-37.68318371,2.989023277
3.374612786,2.271470534,4.5804E-05,-0.000987634,,,4.124198877,1.168965372,-10.28635318,-23.55484993,2.587558996
3.374612786,2.271470534,4.5804E-05,-0.000987634,,,4.124614679,1.209263007,-9.981939927,-22.83590635,2.578493147
3.374612786,2.271470534,4.5804E-05,-0.000987634,,,4.128253612,2.296153358,-3.228127999,-3.365825141,1.6646544
3.374612786,2.271470534,4.5804E-05,-0.000987634,,,4.137668796,0.655673435,-14.165329,-32.65594688,2.767319183
3.374612786,2.271470534,4.5804E-05,-0.000987634,,,4.139455379,0.501991701,-15.31924418,-35.41506319,2.874787718
3.375,2.8125,-3.80379E-05,-0.001025246,,,4.139612363,0.941632326,-12.0040611,-27.50995634,2.646600206
3.375973228,2.345556722,3.63221E-05,-0.0009974,,,4.140047877,0.14615649,-17.97740738,-41.84390206,3.304671534
3.375973228,2.345556722,3.63221E-05,-0.0009974,,,4.140387148,0.302438956,-16.81130151,-39.01465576,3.078946242
3.37733367,2.419642911,2.6145E-05,-0.001005637,,,4.140542752,1.092651973,-10.85997717,-24.80462335,2.607906392
3.37733367,2.419642911,2.6145E-05,-0.001005637,,,4.141544572,2.087391642,-4.052904725,-7.098625149,1.978244832
3.377527277,2.690157644,-1.64426E-05,-0.001023523,,,4.142493148,1.281675527,-9.432403899,-21.42603699,2.565798844
3.378694112,2.493729099,1.52885E-05,-0.001012324,,,4.144592298,1.424265144,-8.367041345,-18.88153671,2.52697554
3.378694112,2.493729099,1.52885E-05,-0.001012324,,,4.150854685,2.209668702,-3.498358444,-4.770340297,1.789120961
3.380054554,2.567815287,3.77425E-06,-0.001017438,,,4.151260844,1.925335121,-4.922671423,-9.940161498,2.187261143
3.380054554,2.567815287,3.77425E-06,-0.001017438,,,4.151581258,2.172127367,-3.650570214,-5.457997127,1.848273168
3.380054554,2.567815287,3.77425E-06,-0.001017438,,,4.152507765,1.89177806,-5.123972008,-10.53030661,2.22468321
3.380054554,2.567815287,3.77425E-06,-0.001017438,,,4.152891129,2.313485379,-3.134333101,-2.810098144,1.616670673
3.380054554,2.567815287,3.77425E-06,-0.001017438,,,4.153252768,0.775293435,-13.25616469,-30.40989691,2.706941579
3.380054554,2.567815287,3.77425E-06,-0.001017438,,,4.153783564,0.824919236,-12.8816973,-29.51450424,2.686732613
3.380054554,2.567815287,3.77425E-06,-0.001017438,,,4.155908786,0.025328123,-18.84547384,-43.95125473,3.526935978
3.383333333,0,0,0,,,4.156478577,1.685488667,-6.477153844,-14.166112,2.405513341
3.386453485,0.201332989,3.11669E-05,-0.000138962,,,4.158701695,1.980251512,-4.595179205,-8.891109453,2.121304153
3.386453485,0.201332989,3.11669E-05,-0.000138962,,,4.162415843,1.536459097,-7.535829229,-16.76151012,2.489396284
3.387105483,1.706596638,9.5226E-05,-0.000861495,,,4.16455061,1.82284587,-5.546543804,-11.66155246,2.296725957
3.387105483,1.706596638,9.5226E-05,-0.000861495,,,4.164643491,1.581686374,-7.207189214,-15.94279722,2.468659424
3.39022074,0.403728157,5.65795E-05,-0.000268662,,,4.168724873,2.403971596,-2.872367781,-0.936179389,1.444348911
3.39022074,0.403728157,5.65795E-05,-0.000268662,,,4.170383688,2.360086764,-2.973837618,-1.760049089,1.519614807
3.39535112,0.605164343,7.6423E-05,-0.000387583,,,4.173605092,2.221383184,-3.415466491,-4.345365261,1.756308401
3.39535112,0.605164343,7.6423E-05,-0.000387583,,,4.18586651,2.155249807,-3.668866944,-5.462246334,1.859205847
3.399097406,0.805763481,9.10317E-05,-0.00049595,,,4.192555462,2.264002433,-3.226228618,-3.371148742,1.668532016
3.399097406,0.805763481,9.10317E-05,-0.00049595,,,4.196027427,0.99492982,-11.58600308,-26.19050937,2.635576507
3.401278267,1.910767511,8.24413E-05,-0.000913552,,,4.19620283,0.849702049,-12.67954778,-28.80448246,2.677686215
3.405752486,1.003872593,0.000100675,-0.00059281,,,4.19646451,0.750412628,-13.42396606,-30.59470225,2.716857532
3.405752486,1.003872593,0.000100675,-0.00059281,,,4.197061418,0.602602617,-14.5260384,-33.26375619,2.796872095
3.407513638,2.735703822,-2.55424E-05,-0.001016902,,,4.19893562,0.2012133,-17.47864824,-40.53527225,3.209510453
3.410040915,2.613361465,-4.33891E-06,-0.001012931,,,4.199730629,0.050922679,-18.56987058,-43.26414323,3.468386037
3.410040915,2.613361465,-4.33891E-06,-0.001012931,,,4.19995054,1.37514025,-8.716671265,-19.35249829,2.553668825
3.412252992,1.204504409,0.000105599,-0.000680741,,,4.201340277,2.052169292,-4.143936323,-7.219387486,2.015740699
3.412252992,1.204504409,0.000105599,-0.000680741,,,4.20303953,1.512284145,-7.695465948,-16.8841476,2.508920212
3.415120372,2.075908341,6.80157E-05,-0.000946924,,,4.205149599,2.20561093,-3.423228122,-4.350344803,1.762208633
3.423143701,1.405494845,0.000105729,-0.000758031,,,4.206368648,1.603497614,-7.028018537,-15.23366038,2.466786633
3.423143701,1.405494845,0.000105729,-0.000758031,,,4.213105048,1.735556543,-6.088909701,-12.8254423,2.380642074
3.428631798,2.202019128,5.44459E-05,-0.000966664,,,4.215182591,2.324282667,-2.991045086,-2.012920225,1.535956807
3.428631798,2.202019128,5.44459E-05,-0.000966664,,,4.216684445,2.177018888,-3.521715554,-4.778397644,1.804682792
3.432299484,1.602199591,0.00010094,-0.000823679,,,4.219127987,2.250716171,-3.225426544,-3.37310087,1.669719364
3.432299484,1.602199591,0.00010094,-0.000823679,,,4.229850855,2.371225787,-2.835297647,-0.968299907,1.427910799
3.4375,2.78125,-3.52868E-05,-0.001009054,,,4.238540215,0.826144376,-12.8412038,-28.9662611,2.682947394
3.440027277,2.658907644,-1.30385E-05,-0.001007288,,,4.239332692,0.776480757,-13.21117197,-29.86116214,2.701809989
3.440027277,2.658907644,-1.30385E-05,-0.001007288,,,4.241755115,2.310996404,-2.979711526,-2.011243737,1.531376064
3.443226742,0.100666494,1.65799E-05,-7.03169E-05,,,4.243473851,1.536304334,-7.501548097,-16.14730995,2.504576523
3.446346893,0.301999483,4.51204E-05,-0.00020352,,,4.243821843,0.025594556,-18.6630184,-43.50234711,3.509320478
3.446346893,0.301999483,4.51204E-05,-0.00020352,,,4.244575321,1.582290526,-7.162621951,-15.3157656,2.483294775
3.446990508,2.293073537,4.3211E-05,-0.000976252,,,4.249910634,2.091726062,-3.862085683,-6.061647618,1.933905442
3.446990508,2.293073537,4.3211E-05,-0.000976252,,,4.25127458,1.093867935,-10.82787798,-24.04278146,2.613608924
3.44835095,2.367159725,3.31564E-05,-0.000984969,,,4.252569736,0.942872727,-11.96365254,-26.76408984,2.646118034
3.449711392,2.441245913,2.23615E-05,-0.000992127,,,4.253224975,1.282891489,-9.399130571,-20.62221263,2.579115103
3.450795711,0.50391516,6.79946E-05,-0.000326968,,,4.255475761,0.50305652,-15.21709686,-34.73268064,2.859587247
3.450795711,0.50391516,6.79946E-05,-0.000326968,,,4.256021017,0.656759655,-14.09001428,-31.93331568,2.756353292
3.451071834,2.515332101,1.0839E-05,-0.000997698,,,4.25640753,0.303503775,-16.66071714,-38.36390858,3.058935744
3.451071834,2.515332101,1.0839E-05,-0.000997698,,,4.257549671,1.425505545,-8.322988821,-18.02733219,2.545237898
3.454541997,0.704514298,8.5374E-05,-0.000439494,,,4.258400097,0.147242711,-17.7737207,-41.20579414,3.281186593
3.454966601,1.802286063,9.1202E-05,-0.000878009,,,4.261395363,2.355453533,-2.812685357,-0.962950157,1.416915724
3.454966601,1.802286063,9.1202E-05,-0.000878009,,,4.264844639,1.689823088,-6.371744593,-13.22717582,2.419882921
3.459742681,0.903868423,9.76482E-05,-0.000541163,,,4.26493267,1.984500533,-4.424707209,-7.899899831,2.099677565
3.466397761,1.101977535,0.000105043,-0.000632062,,,4.267433685,1.170538254,-10.24608434,-22.54833327,2.599065999
3.466397761,1.101977535,0.000105043,-0.000632062,,,4.267849487,1.210835889,-9.941400396,-21.81781327,2.592097121
3.469139385,2.006456935,7.54161E-05,-0.000923446,,,4.270781586,1.827094891,-5.412110576,-10.70720089,2.299046497
3.469139385,2.006456935,7.54161E-05,-0.000923446,,,4.272817816,0.425360866,-15.76562881,-36.05043406,2.923375038
3.470013638,2.704453822,-2.23681E-05,-0.001000463,,,4.273016459,0.382818529,-16.07199704,-36.82566693,2.965427597
3.470013638,2.704453822,-2.23681E-05,-0.001000463,,,4.275871107,2.110063945,-3.724775176,-5.486803974,1.887008062
3.472540915,2.582111465,-6.73963E-07,-0.000996419,,,4.277534502,2.251163693,-3.109972957,-2.812156695,1.611437547
3.472540915,2.582111465,-6.73963E-07,-0.000996419,,,4.283429838,2.218565246,-3.223210872,-3.376725318,1.671792842
3.475093368,1.302788661,0.000107678,-0.000713741,,,4.288233987,0.923028168,-12.102884,-26.89531413,2.646291433
3.475093368,1.302788661,0.000107678,-0.000713741,,,4.288673671,1.930831353,-4.716080361,-8.673038292,2.170422885
3.482650811,2.132567723,6.27438E-05,-0.00094482,,,4.289920592,1.897274291,-4.927777756,-9.273218185,2.214763549
3.482650811,2.132567723,6.27438E-05,-0.00094482,,,4.291610815,1.44573972,-8.160267715,-17.40795301,2.539405917
3.484249152,1.499493406,0.000105398,-0.000783556,,,4.292132401,0.678718977,-13.90939896,-31.31842301,2.737328517
3.5,0,0,0,,,4.293146584,2.194479824,-3.30285117,-3.741975516,1.711355366
3.5,2.75,-3.2379E-05,-0.000992409,,,4.29502706,2.297765077,-2.911953324,-1.749028876,1.492939317
3.5,2.75,-3.2379E-05,-0.000992409,,,4.295541742,0.125906756,-17.86127206,-41.40281588,3.306026833
3.500160602,1.697889015,9.81679E-05,-0.000842748,,,4.297029252,1.671958619,-6.477576318,-13.28855444,2.432442924
3.50100952,2.223622131,5.21287E-05,-0.000955603,,,4.323112707,2.138186542,-3.497026259,-4.525624629,1.798381349
3.502527277,2.627657644,-9.54625E-06,-0.000990608,,,4.323901099,2.326383483,-2.759526286,-0.909268086,1.389186328
3.503120151,0.201332989,3.19969E-05,-0.000137351,,,4.324033519,1.07085203,-10.98823132,-23.97217047,2.60809721
3.506240302,0.402665978,5.79126E-05,-0.000264658,,,4.326461688,1.306179115,-9.208713983,-19.67607745,2.569380441
3.506240302,0.402665978,5.79126E-05,-0.000264658,,,4.331581652,0.527993912,-14.97819417,-33.8416564,2.820696345
3.506240302,0.402665978,5.79126E-05,-0.000264658,,,4.332169226,2.004194574,-4.202439934,-6.943178475,2.042585462
3.506240302,0.402665978,5.79126E-05,-0.000264658,,,4.332741669,0.279558387,-16.73521897,-38.38905155,3.066170799
3.506240302,0.402665978,5.79126E-05,-0.000264658,,,4.339450902,1.808230577,-5.4679232,-10.46958246,2.310343076
3.506240302,0.402665978,5.79126E-05,-0.000264658,,,4.343499997,1.54242715,-7.413026872,-15.2611037,2.499936517
3.509986588,0.603265115,7.81657E-05,-0.000381356,,,4.344427855,1.58116509,-7.121012716,-14.55079618,2.482043178
3.513732875,0.803864253,9.31812E-05,-0.000487872,,,4.347881763,0.825745565,-12.80659532,-28.29391702,2.660781948
3.513732875,0.803864253,9.31812E-05,-0.000487872,,,4.348549332,0.783909826,-13.1134569,-29.05542746,2.675483834
3.51936823,2.314676539,4.01287E-05,-0.000963681,,,4.356944852,0.021560393,-18.4587776,-43.00798626,3.478298127
3.51936823,2.314676539,4.01287E-05,-0.000963681,,,4.358062001,2.266247607,-2.878337185,-1.742413323,1.477788411
3.520387955,1.001973365,0.000103118,-0.000582807,,,4.358129699,2.022532456,-4.048365568,-6.369452888,1.996446476
3.520728672,2.388762727,2.94547E-05,-0.000971292,,,4.35969777,1.05100747,-11.13097438,-24.09677031,2.602657659
3.522089114,2.462848916,1.79884E-05,-0.000977306,,,4.359720675,1.470052412,-7.955233134,-16.45058184,2.52396661
3.522089114,2.462848916,1.79884E-05,-0.000977306,,,4.360522832,1.32641329,-9.04890844,-19.06120873,2.55894176
3.522827719,1.897975487,8.55271E-05,-0.00089047,,,4.363317232,0.90184522,-12.24069504,-26.80372964,2.633337351
3.522827719,1.897975487,8.55271E-05,-0.00089047,,,4.364072967,1.651759928,-6.581493623,-13.11062156,2.438509317
3.527043036,1.200082477,0.000108206,-0.000667665,,,4.366448585,0.705606903,-13.67673813,-30.38217034,2.702717549
3.527043036,1.200082477,0.000108206,-0.000667665,,,4.367693036,0.549953234,-14.79506985,-33.23177943,2.792613372
3.527043036,1.200082477,0.000108206,-0.000667665,,,4.369883314,0.258222433,-16.835106,-38.58255284,3.079753857
3.527043036,1.200082477,0.000108206,-0.000667665,,,4.371635516,1.790366109,-5.561059019,-10.52173979,2.321681572
3.527043036,1.200082477,0.000108206,-0.000667665,,,4.373155417,0.101133035,-17.89585217,-41.45899995,3.31962123
3.527043036,1.200082477,0.000108206,-0.000667665,,,4.373845129,1.167828748,-10.24990738,-21.86376005,2.580332256
3.532513638,2.673203822,-1.90789E-05,-0.00098361,,,4.374338731,1.215666469,-9.887966828,-20.98514582,2.573307731
3.536198819,1.396787222,0.000108468,-0.000741629,,,4.384290627,0.430331021,-15.62637719,-35.33698544,2.882879441
3.536669824,2.063116317,7.06266E-05,-0.000922158,,,4.384526437,0.379828593,-15.97820337,-36.26509585,2.931919854
3.536669824,2.063116317,7.06266E-05,-0.000922158,,,4.3867051,2.070517783,-3.718676592,-5.209801685,1.883710764
3.543558195,2.52962828,6.4883E-06,-0.000976333,,,4.387594478,2.238076723,-2.91411603,-1.999854822,1.50303614
3.545354602,1.593491968,0.000103748,-0.00080549,,,4.390342187,1.93766694,-4.522064935,-7.653558578,2.123343242
3.545354602,1.593491968,0.000103748,-0.00080549,,,4.391822419,1.89783102,-4.785766396,-8.376138043,2.1827872
3.555028533,2.154170725,6.06909E-05,-0.000934129,,,4.397311224,2.213991302,-2.988349312,-2.37198999,1.54816192
3.559893409,0.100666494,1.69912E-05,-6.9514E-05,,,4.403640206,2.153270456,-3.248761944,-3.480778497,1.685316631
3.5625,2.71875,-2.93219E-05,-0.000975382,,,4.405438611,2.285614727,-2.694027911,-0.89350169,1.357080914
3.56301356,0.301999483,4.61974E-05,-0.000200991,,,4.41299511,1.37780365,-8.645953628,-17.73508448,2.533346852
3.56301356,0.301999483,4.61974E-05,-0.000200991,,,4.414773053,1.239686658,-9.699625277,-20.25984265,2.556116267
3.565027277,2.596407644,-5.97279E-06,-0.000973549,,,4.416182514,1.144271075,-10.42163448,-22.00538299,2.568716487
3.565027277,2.596407644,-5.97279E-06,-0.000973549,,,4.418564385,1.000783336,-11.49515644,-24.63161974,2.590707303
3.56543118,0.502015933,6.93586E-05,-0.000321545,,,4.421160121,1.959436021,-4.329044622,-6.973751033,2.070228979
3.56543118,0.502015933,6.93586E-05,-0.000321545,,,4.421749505,1.743298276,-5.855253397,-10.95885209,2.351770778
3.568021719,1.793578439,9.3817E-05,-0.000857802,,,4.424862927,0.606060806,-14.35920555,-31.86958501,2.732822156
3.569177466,0.70261507,8.71672E-05,-0.000432218,,,4.427158809,0.456399149,-15.4066223,-34.61818743,2.841169359
3.573387242,2.245225133,4.93406E-05,-0.000943405,,,4.428617652,0.35450047,-16.10622416,-36.49172702,2.93912755
3.574378149,0.901969195,9.97671E-05,-0.000531938,,,4.430029093,1.876623932,-4.877269136,-8.42985575,2.195217087
3.58103323,1.100078307,0.000107389,-0.000620803,,,4.430627327,0.203423511,-17.12128502,-39.27347643,3.128111091
3.58103323,1.100078307,0.000107389,-0.000620803,,,4.440275682,2.037919535,-3.796344162,-5.327356523,1.906301529
3.588148487,1.294081038,0.000110107,-0.000697945,,,4.455605519,1.218723109,-9.853291991,-20.3595847,2.540925041
3.588148487,1.294081038,0.000110107,-0.000697945,,,4.457081519,1.955324108,-4.291966712,-6.723396691,2.05386926
3.590688837,1.993664911,7.80274E-05,-0.00089873,,,4.457508583,1.171145247,-10.21345466,-21.22665431,2.546396155
3.590688837,1.993664911,7.80274E-05,-0.00089873,,,4.46218173,2.144962501,-3.147510242,-3.07819566,1.633334257
3.590688837,1.993664911,7.80274E-05,-0.00089873,,,4.463861944,1.472586093,-7.90328088,-15.60424552,2.487700549
3.590688837,1.993664911,7.80274E-05,-0.00089873,,,4.464078602,2.254111913,-2.653426868,-0.924788609,1.338885404
3.590688837,1.993664911,7.80274E-05,-0.00089873,,,4.465511739,1.895298508,-4.694233942,-7.768273441,2.148010314
3.590688837,1.993664911,7.80274E-05,-0.00089873,,,4.466757186,1.328997895,-9.010216184,-18.23934388,2.519016878
3.590688837,1.993664911,7.80274E-05,-0.00089873,,,4.468214236,1.65429361,-6.494340753,-12.20984363,2.401547744
3.591745951,2.336279542,3.65147E-05,-0.000949911,,,4.470535221,2.034455733,-3.75422194,-5.112059357,1.886556956
3.591745951,2.336279542,3.65147E-05,-0.000949911,,,4.47090148,0.432219445,-15.53418684,-34.82357307,2.841143086
3.593106393,2.41036573,2.51696E-05,-0.000956358,,,4.472124513,0.380823194,-15.88196385,-35.76909183,2.889922502
3.593106393,2.41036573,2.51696E-05,-0.000956358,,,4.473895254,1.930388551,-4.433770146,-7.038213551,2.085515404
3.595013638,2.641953822,-1.56807E-05,-0.000966404,,,4.475613447,2.225519871,-2.73608565,-1.37345577,1.397579264
3.59730427,1.490785783,0.000107979,-0.000765936,,,4.475703086,1.054651493,-11.08452956,-23.26217366,2.553705406
3.609047546,2.08471932,6.88237E-05,-0.000911883,,,4.477036949,0.905417447,-12.18497057,-26.02095146,2.583553401
3.609047546,2.08471932,6.88237E-05,-0.000911883,,,4.47786987,1.792950714,-5.427983295,-9.560716919,2.275562994
3.61321572,1.689181392,0.000100701,-0.000823154,,,4.478209728,1.545704541,-7.330846455,-14.13876785,2.454285936
3.614575475,2.477145094,1.37466E-05,-0.000955711,,,4.479137586,1.584442481,-7.029490767,-13.41388833,2.43602352
3.616666667,0,0,0,,,4.480168302,0.709179129,-13.59834702,-29.63977666,2.650968353
3.619786818,0.201332989,3.2698E-05,-0.00013567,,,4.483698351,0.553597257,-14.6889679,-32.50336345,2.73783754
3.619786818,0.201332989,3.2698E-05,-0.00013567,,,4.489913434,0.258222433,-16.67807785,-37.94836104,3.021317643
3.621628622,0.402366096,5.90936E-05,-0.000260995,,,4.49082064,0.101133035,-17.68904524,-40.86359709,3.258062946
3.621628622,0.402366096,5.90936E-05,-0.000260995,,,4.492441269,2.141498699,-3.085593806,-2.851015615,1.600855307
3.624622057,0.601365888,7.95983E-05,-0.000374917,,,4.494981493,0.830366343,-12.72467051,-27.30260688,2.595411577
3.624622057,0.601365888,7.95983E-05,-0.000374917,,,4.495649061,0.788530604,-13.02545364,-28.07554745,2.609505179
3.625,2.6875,-2.61229E-05,-0.000958032,,,4.50115372,1.311338578,-9.140045323,-18.31790551,2.502443245
3.627406255,2.175773728,5.81857E-05,-0.000922352,,,4.507759813,1.80868184,-5.273586858,-9.00619679,2.239411889
3.627406255,2.175773728,5.81857E-05,-0.000922352,,,4.509148208,0.021560393,-18.15023902,-42.2555396,3.39497399
3.628368343,0.801965025,9.49634E-05,-0.000479473,,,4.510515422,1.077289811,-10.91030236,-22.61211037,2.52979562
3.628368343,0.801965025,9.49634E-05,-0.000479473,,,4.511534845,2.221407958,-2.651670682,-1.093463664,1.345402688
3.635023424,1.000074137,0.000105152,-0.000572359,,,4.520546391,0.533228709,-14.80334071,-32.67461347,2.73140628
3.635023424,1.000074137,0.000105152,-0.000572359,,,4.526562831,0.280396221,-16.48714515,-37.34493521,2.971562011
3.635882837,1.889267864,8.7728E-05,-0.000868708,,,4.528643098,2.054270176,-3.494865375,-4.185690917,1.778863913
3.635882837,1.889267864,8.7728E-05,-0.000868708,,,4.5325549,1.451601715,-8.046968434,-15.46839699,2.452670066
3.636044557,2.543924458,1.31509E-06,-0.000953248,,,4.534837072,2.002304808,-3.821479632,-5.119029187,1.894190105
3.639334034,1.197078401,0.000110351,-0.000654885,,,4.537973337,1.677820614,-6.262135099,-11.19195891,2.343145958
3.639334034,1.197078401,0.000110351,-0.000654885,,,4.545578205,2.137022849,-2.962327565,-2.417307832,1.533742938
3.645764964,2.266828136,4.60447E-05,-0.000930066,,,4.546184546,1.882231556,-4.664686491,-7.28555563,2.109951397
3.645764964,2.266828136,4.60447E-05,-0.000930066,,,4.549000659,1.981299543,-3.935704004,-5.385316411,1.924820069
3.649253938,1.388079599,0.000110764,-0.000724653,,,4.551339032,0.931292968,-11.97783046,-25.07548304,2.531349028
3.649253938,1.388079599,0.000110764,-0.000724653,,,4.553246668,1.911790776,-4.430319935,-6.663392791,2.055524368
3.657513638,2.610703822,-1.2182E-05,-0.000948906,,,4.555237446,0.686983778,-13.71873296,-29.61455322,2.616744877
3.657513638,2.610703822,-1.2182E-05,-0.000948906,,,4.561389116,1.223287747,-9.804426662,-19.53958406,2.47343786
3.658409721,1.584784345,0.00010612,-0.000786576,,,4.561953843,1.817088053,-5.143209616,-8.370485571,2.188404598
3.658409721,1.584784345,0.00010612,-0.000786576,,,4.562992223,1.183209012,-10.10789699,-20.28075016,2.477811297
3.664123673,2.357882544,3.23284E-05,-0.000934942,,,4.566951434,1.433942399,-8.176185989,-15.53961689,2.431290527
3.664123673,2.357882544,3.23284E-05,-0.000934942,,,4.567775219,0.125906756,-17.40500006,-40.01768088,3.165638593
3.664123673,2.357882544,3.23284E-05,-0.000934942,,,4.56786328,1.693551741,-6.115451205,-10.64605038,2.307949711
3.664123673,2.357882544,3.23284E-05,-0.000934942,,,4.574018596,2.193763653,-2.585864926,-1.009581032,1.309800751
3.664123673,2.357882544,3.23284E-05,-0.000934942,,,4.574338454,1.294969341,-9.254341466,-18.10157488,2.452465438
3.664123673,2.357882544,3.23284E-05,-0.000934942,,,4.578330825,1.544451163,-7.299332213,-13.37023597,2.385613203
3.665364613,2.042578232,7.36376E-05,-0.000893337,,,4.579432295,1.590437355,-6.932106564,-12.49397243,2.363679202
3.665364613,2.042578232,7.36376E-05,-0.000893337,,,4.581858124,1.10697258,-10.67769817,-21.58754028,2.474117811
3.676560076,0.100666494,1.73308E-05,-6.86809E-05,,,4.582875434,0.431006526,-15.44073716,-34.23940836,2.774884454
3.676560076,0.100666494,1.73308E-05,-6.86809E-05,,,4.583905695,0.38771125,-15.72402049,-35.04256542,2.815314843
3.678401879,0.301699601,4.70323E-05,-0.000198201,,,4.586151368,0.953931286,-11.80480038,-24.43524694,2.500355973
3.680819499,0.501716051,7.06078E-05,-0.000316848,,,4.592085485,0.66661523,-13.84136731,-29.78453498,2.601922255
3.681076838,1.784870816,9.60002E-05,-0.000836715,,,4.595080039,1.955741076,-4.023144371,-5.439709998,1.92910627
3.681076838,1.784870816,9.60002E-05,-0.000836715,,,4.597705511,0.510518343,-14.89984512,-32.67331629,2.698319426
3.683723322,2.13363264,6.33361E-05,-0.000904221,,,4.602538142,0.307433792,-16.22202015,-36.44634202,2.888789931
3.683812935,0.700715842,8.86016E-05,-0.000424692,,,4.604195837,0.837630552,-12.63666921,-26.50905897,2.519609991
3.683812935,0.700715842,8.86016E-05,-0.000424692,,,4.604424615,0.148080545,-17.2107451,-39.42083933,3.103475695
3.685592755,2.424661908,2.10445E-05,-0.000934637,,,4.604988314,0.787966932,-12.98813986,-27.43632128,2.537035601
3.685592755,2.424661908,2.10445E-05,-0.000934637,,,4.608418573,1.728083387,-5.803162021,-9.648265092,2.242249192
3.6875,2.65625,-2.27915E-05,-0.000940417,,,4.608613146,2.105505379,-2.956234128,-2.412433867,1.524317345
3.689013618,0.900069967,0.000101475,-0.000522353,,,4.614914942,1.609111931,-6.762657465,-11.85335008,2.32091373
3.689013618,0.900069967,0.000101475,-0.000522353,,,4.619163291,1.523487614,-7.450308123,-13.44723967,2.35567244
3.693324228,1.097074231,0.000109225,-0.000608829,,,4.622163889,0.025594556,-17.90399179,-41.63552248,3.303229989
3.695895785,1.971485322,8.09762E-05,-0.000874321,,,4.625205287,1.389751784,-8.509194376,-15.94405316,2.388526251
3.695895785,1.971485322,8.09762E-05,-0.000874321,,,4.638280631,2.068579018,-3.103279732,-2.844840054,1.587909788
3.700439485,1.291076963,0.00011207,-0.000683863,,,4.640330689,1.011606691,-11.37177124,-23.01216629,2.441845059
3.702082032,2.224687048,5.14947E-05,-0.000912347,,,4.645521905,0.864504723,-12.43163581,-25.75825448,2.476907539
3.707061837,2.491441272,8.71267E-06,-0.000932518,,,4.646086242,1.800183987,-5.174101202,-7.944134271,2.125876829
3.707061837,2.491441272,8.71267E-06,-0.000932518,,,4.648730985,0.763787228,-13.13998257,-27.63750848,2.512014815
3.710359388,1.48207816,0.000110096,-0.00074771,,,4.652444218,2.047573754,-3.207875137,-3.116521026,1.629123021
3.710359388,1.48207816,0.000110096,-0.00074771,,,4.652752822,1.592480826,-6.878192214,-11.86736677,2.288793851
3.720440741,2.315741457,3.80328E-05,-0.000917632,,,4.653010886,0.613636666,-14.16868657,-30.4381295,2.586074682
3.720440741,2.315741457,3.80328E-05,-0.000917632,,,4.653686616,1.676307928,-6.189908982,-10.25292849,2.235660669
3.726270838,1.680473769,0.000102776,-0.000802807,,,4.655012229,1.860365659,-4.667066372,-6.708080798,2.033536609
3.726270838,1.680473769,0.000102776,-0.000802807,,,4.655556108,2.152994897,-2.521212484,-0.993325774,1.27768564
3.728530918,2.558220636,-4.72658E-06,-0.000928524,,,4.658102642,1.5528427,-7.198373351,-12.58433753,2.301565908
3.728530918,2.558220636,-4.72658E-06,-0.000928524,,,4.662074351,1.889924879,-4.414356421,-6.07549536,1.97752858
3.733333333,0,0,0,,,4.662731455,0.205143317,-16.7796447,-38.06168339,2.973732984
3.733333333,0,0,0,,,4.665670751,0.05191728,-17.67218584,-40.93346575,3.216964676
3.733333333,0,0,0,,,4.675050087,2.006976278,-3.446220261,-3.688675028,1.708382598
3.735175137,0.201033107,3.32056E-05,-0.000133756,,,4.679076012,1.442578998,-8.078205443,-14.54082875,2.315729548
3.737016941,0.402066214,6.00209E-05,-0.000257202,,,4.679212439,1.938837009,-3.981041183,-4.968071314,1.861989416
3.737016941,0.402066214,6.00209E-05,-0.000257202,,,4.684253894,1.303435776,-9.16967451,-17.17323886,2.342102256
3.740010377,0.601066006,8.08423E-05,-0.000369116,,,4.685560566,1.662298184,-6.28274601,-10.25860779,2.206077797
3.74004039,2.091491553,6.83189E-05,-0.000885878,,,4.688914455,0.842586846,-12.57179541,-25.91847661,2.445698392
3.74004039,2.091491553,6.83189E-05,-0.000885878,,,4.691331058,0.79153297,-12.9287122,-26.87076892,2.463307598
3.741089785,1.867088275,9.05267E-05,-0.000844676,,,4.691773564,1.115439016,-10.59528316,-20.7175699,2.369541695
3.743003812,0.800065797,9.63399E-05,-0.00047079,,,4.698275945,0.962567885,-11.71362308,-23.58812927,2.398626895
3.743003812,0.800065797,9.63399E-05,-0.00047079,,,4.702410832,1.76957213,-5.366221845,-8.038919976,2.087984119
3.743003812,0.800065797,9.63399E-05,-0.00047079,,,4.703567903,1.234239325,-9.697774238,-18.36910722,2.333232096
3.743003812,0.800065797,9.63399E-05,-0.00047079,,,4.70517101,1.194160591,-10.00206782,-19.1270739,2.339093957
3.743003812,0.800065797,9.63399E-05,-0.00047079,,,4.710173528,0.026322724,-17.73218101,-41.20922571,3.224176016
3.743003812,0.800065797,9.63399E-05,-0.00047079,,,4.710831459,0.669583895,-13.75669823,-29.06748016,2.504532239
3.747314422,0.997070062,0.000106662,-0.000561244,,,4.711877819,1.467307194,-7.869598071,-13.82248156,2.266723792
3.748092755,2.393411908,2.4934E-05,-0.000916766,,,4.714111889,0.513428518,-14.79102484,-31.9979762,2.604918289
3.748092755,2.393411908,2.4934E-05,-0.000916766,,,4.714218084,2.120066338,-2.505334478,-1.054727081,1.268273191
3.75,2.625,-1.93388E-05,-0.00092259,,,4.71894452,0.310343967,-16.06969606,-35.80263318,2.793945932
3.75,2.625,-1.93388E-05,-0.00092259,,,4.723170589,0.15104921,-17.01034142,-38.78887636,3.001079166
3.75,2.625,-1.93388E-05,-0.00092259,,,4.731031819,2.095130781,-2.604208001,-1.383764353,1.324506914
3.751625032,1.194074326,0.000112032,-0.000641629,,,4.733450437,0.434770922,-15.27981077,-33.38237404,2.654182463
3.751625032,1.194074326,0.000112032,-0.000641629,,,4.734284781,1.755562387,-5.451692274,-8.037262061,2.055648076
3.758399099,2.182545961,5.68178E-05,-0.000894415,,,4.734480698,0.391475645,-15.55138978,-34.19450794,2.694165613
3.761544936,1.385075524,0.000112499,-0.000709202,,,4.734829048,0.94410466,-11.83563774,-23.72323311,2.366202926
3.769561837,2.460191272,1.25343E-05,-0.000914611,,,4.736031977,1.840944988,-4.712580239,-6.348135993,1.946616806
3.770571561,2.020398643,7.62918E-05,-0.00086808,,,4.738267555,2.03032994,-3.081591344,-2.606877888,1.538954591
3.771464839,1.576076721,0.000108008,-0.000767031,,,4.743651678,1.942189833,-3.814938046,-4.284639364,1.759192078
3.771464839,1.576076721,0.000108008,-0.000767031,,,4.744415492,1.876035031,-4.394646754,-5.579099359,1.879414575
3.771464839,1.576076721,0.000108008,-0.000767031,,,4.746716993,0.692956409,-13.57913781,-28.43056642,2.458415936
3.771464839,1.576076721,0.000108008,-0.000767031,,,4.753998363,1.611738697,-6.662077624,-10.69292651,2.139482946
3.771464839,1.576076721,0.000108008,-0.000767031,,,4.755457085,1.330926756,-8.939904963,-16.15837744,2.245316628
3.771464839,1.576076721,0.000108008,-0.000767031,,,4.757929263,1.662368077,-6.230210388,-9.668560523,2.099575987
3.776757808,2.273600369,4.36569E-05,-0.000900111,,,4.758504955,1.578348254,-6.939926786,-11.31244625,2.151327896
3.776757808,2.273600369,4.36569E-05,-0.000900111,,,4.760658928,0.129488817,-17.07502983,-39.02009199,2.99956747
3.786283786,1.762691228,9.85467E-05,-0.000813119,,,4.764818786,1.096877988,-10.71631509,-20.61931249,2.289411779
3.791030918,2.526970636,-1.01363E-06,-0.000910576,,,4.766813734,2.100064443,-2.4373599,-0.915182933,1.232014449
3.791948395,0.100366612,1.75385E-05,-6.76328E-05,,,4.768409597,2.034485968,-2.929294874,-2.201030702,1.473915447
3.791948395,0.100366612,1.75385E-05,-6.76328E-05,,,4.773793719,1.946345861,-3.702215234,-3.903092767,1.689096479
3.793790199,0.301399719,4.76567E-05,-0.000195328,,,4.773869858,1.824313882,-4.803223121,-6.337068837,1.904588606
3.796207818,0.501416169,7.15435E-05,-0.000311992,,,4.77906827,1.50574399,-7.531874492,-12.58389747,2.152246644
3.799201254,0.70041596,8.97752E-05,-0.000417718,,,4.780197408,1.880968692,-4.29059573,-5.153339615,1.802566173
3.799201254,0.70041596,8.97752E-05,-0.000417718,,,4.788258892,1.355654952,-8.737226791,-15.45733604,2.190495153
3.801102733,1.949305734,8.3565E-05,-0.000849372,,,4.789867367,0.53996177,-14.56166126,-31.10525499,2.515443615
3.801102733,1.949305734,8.3565E-05,-0.000849372,,,4.795596932,1.734468677,-5.572486918,-7.936320866,1.970541223
3.801304616,0.897065892,0.000102652,-0.000512139,,,4.795883807,0.287129282,-16.11955391,-35.86671963,2.75131227
3.801304616,0.897065892,0.000102652,-0.000512139,,,4.798025626,1.851517798,-4.527756883,-5.584967807,1.817538325
3.804409823,2.351270821,3.07889E-05,-0.0008996,,,4.799611416,0.846111139,-12.5040978,-25.22718021,2.330841575
3.805615226,1.094070156,0.000110589,-0.000596472,,,4.801371889,1.078414763,-10.84230149,-20.7560114,2.248192041
3.8125,2.59375,-1.57771E-05,-0.000904599,,,4.80164712,0.803104273,-12.80058379,-26.03748942,2.347460294
3.812730483,1.288072887,0.000113539,-0.00066928,,,4.809028825,1.245946179,-9.583859245,-17.46237006,2.190641956
3.814716167,2.140404874,6.19852E-05,-0.000876307,,,4.810931889,1.198368317,-9.945165675,-18.37557115,2.201245047
3.814716167,2.140404874,6.19852E-05,-0.000876307,,,4.811789817,0.925001499,-11.94562754,-23.64825795,2.285544732
3.822650386,1.479074085,0.000111557,-0.000730822,,,4.816436941,2.026470899,-2.893915881,-1.897269796,1.399578519
3.822650386,1.479074085,0.000111557,-0.000730822,,,4.820599293,1.95833163,-3.539158598,-3.228285705,1.583569329
3.831477787,1.65829418,0.000104982,-0.000779706,,,4.821338661,0.723269791,-13.33422413,-27.45640435,2.365963024
3.831477787,1.65829418,0.000104982,-0.000779706,,,4.823346184,0.022173789,-17.54456,-40.77614918,3.116807559
3.832061837,2.428941272,1.63757E-05,-0.000896557,,,4.825752901,0.563334284,-14.38447168,-30.47961749,2.462584325
3.832061837,2.428941272,1.63757E-05,-0.000896557,,,4.828465437,2.071843811,-2.372971755,-0.862094756,1.196195527
3.833074876,2.231459282,4.91709E-05,-0.000882418,,,4.833372146,0.265568889,-16.20044027,-36.09867177,2.740758314
3.833074876,2.231459282,4.91709E-05,-0.000882418,,,4.83809557,1.914194936,-3.880170673,-3.951091377,1.625327028
3.845247338,2.069311964,7.06513E-05,-0.000859784,,,4.838116876,1.419427983,-8.211471197,-13.8725387,2.087177069
3.846296734,1.844908686,9.29209E-05,-0.000820222,,,4.838577482,0.104010281,-17.09170642,-39.14761876,2.961491359
3.85,0,0,0,,,4.841147312,1.778552615,-5.126674079,-6.674241091,1.827421667
3.850563456,0.200733225,3.35583E-05,-0.000131796,,,4.84519582,0.441576854,-15.13590799,-32.69851719,2.542500862
3.850563456,0.200733225,3.35583E-05,-0.000131796,,,4.846418853,0.390180603,-15.44866985,-33.66944293,2.590160604
3.85240526,0.401766332,6.06719E-05,-0.0002533,,,4.847968176,1.275301265,-9.345656828,-16.64553294,2.121538976
3.85240526,0.401766332,6.06719E-05,-0.0002533,,,4.85311374,1.889386033,-4.085859425,-4.298157953,1.634400214
3.853530918,2.495720636,2.7558E-06,-0.000892497,,,4.854324438,1.17645044,-10.09765941,-18.54039944,2.143969398
3.855398696,0.600766123,8.17152E-05,-0.00036313,,,4.861495696,1.801468704,-4.889615822,-6.046312042,1.7498231
3.855398696,0.600766123,8.17152E-05,-0.00036313,,,4.862686332,1.68490534,-5.948280653,-8.395467956,1.88013317
3.856318425,0.80017305,9.73971E-05,-0.000462917,,,4.863232692,1.028833824,-11.1836644,-21.35868811,2.181622187
3.856318425,0.80017305,9.73971E-05,-0.000462917,,,4.879471882,1.994953429,-2.962252454,-1.880164576,1.35555588
3.85960542,0.994065986,0.000107697,-0.000549831,,,4.882439665,0.623061644,-13.9590104,-29.05818178,2.360303213
3.85960542,0.994065986,0.000107697,-0.000549831,,,4.883825339,1.528281253,-7.292401424,-11.39676869,1.948150142
3.86072689,2.309129733,3.65764E-05,-0.000882273,,,4.887795893,0.469322596,-14.92706317,-31.96581612,2.473587898
3.86391603,1.19107025,0.000113207,-0.000627966,,,4.889504649,1.640891295,-6.316350547,-9.085900103,1.858317364
3.86391603,1.19107025,0.000113207,-0.000627966,,,4.890565489,1.256996948,-9.471715195,-16.74624553,2.057833605
3.873835934,1.382071448,0.000113714,-0.00069323,,,4.890921631,0.364586047,-15.55670655,-33.94680015,2.570367216
3.873835934,1.382071448,0.000113714,-0.00069323,,,4.891044815,1.841960856,-4.467887872,-4.943798404,1.611741212
3.875,2.5625,-1.21187E-05,-0.000886493,,,4.894011241,1.607500852,-6.60602549,-9.729245014,1.874153485
3.87577851,1.998219054,7.8588E-05,-0.000842351,,,4.894790546,0.209210932,-16.44044809,-36.89008057,2.749025277
3.879620171,1.571745627,0.000109169,-0.000748939,,,4.895018688,1.205723985,-9.862429812,-17.72890392,2.069735938
3.879620171,1.571745627,0.000109169,-0.000748939,,,4.895121424,1.37864518,-8.515540467,-14.31266087,2.000738902
3.888378904,2.386800185,2.24133E-05,-0.000879607,,,4.910002949,2.031075055,-2.473816936,-0.833086719,1.214935333
3.889391943,2.189318194,5.45447E-05,-0.000864586,,,4.914248959,1.961566287,-3.275739681,-2.202477162,1.310433802
3.889391943,2.189318194,5.45447E-05,-0.000864586,,,4.918631058,1.086340444,-10.74336765,-19.93347835,2.07917023
3.889391943,2.189318194,5.45447E-05,-0.000864586,,,4.926738684,0.932771024,-11.84265951,-22.87792286,2.134086061
3.889391943,2.189318194,5.45447E-05,-0.000864586,,,4.927929383,1.71444101,-5.613340622,-7.30129855,1.693128744
3.889391943,2.189318194,5.45447E-05,-0.000864586,,,4.929267129,1.936757384,-3.506189811,-2.659048484,1.301611993
3.891490734,1.740511639,0.000100644,-0.000789216,,,4.931004633,1.363225953,-8.622238028,-14.40044084,1.939266445
3.891490734,1.740511639,0.000100644,-0.000789216,,,4.9327142,0.44554803,-15.03164774,-32.20849062,2.446383892
3.906309681,1.927126145,8.57648E-05,-0.000824029,,,4.934616904,0.392207731,-15.34878227,-33.21849016,2.495392745
3.906309681,1.927126145,8.57648E-05,-0.000824029,,,4.936287529,0.731039316,-13.21663227,-26.72307928,2.228524844
3.908615062,0.100366612,1.77123E-05,-6.67552E-05,,,4.943012071,0.571259965,-14.2464467,-29.75643621,2.329365077
3.909178518,0.301099837,4.80536E-05,-0.000192387,,,4.948277767,1.737357099,-5.371233169,-6.682142891,1.612816285
3.909178518,0.301099837,4.80536E-05,-0.000192387,,,4.948301087,0.856161243,-12.36445872,-24.25074356,2.142725161
3.911596138,0.501116287,7.214E-05,-0.000307005,,,4.949917404,1.878582655,-3.996589221,-3.720296916,1.364881528
3.911596138,0.501116287,7.214E-05,-0.000307005,,,4.95033679,0.813154377,-12.65730263,-25.07188359,2.163270313
3.912515866,0.700523213,9.05452E-05,-0.000410866,,,4.952911161,1.110999951,-10.54732322,-19.26566467,2.014579565
3.914619228,0.897173144,0.00010353,-0.000503003,,,4.953402266,0.265568889,-16.05462777,-35.55368051,2.613744062
3.916030918,2.464470636,6.56907E-06,-0.000874331,,,4.954246637,1.51945002,-7.322607411,-11.11407608,1.798521186
3.916030918,2.464470636,6.56907E-06,-0.000874331,,,4.956242705,0.104010281,-16.90852887,-38.63426234,2.829885722
3.917043958,2.266988646,4.22652E-05,-0.000864819,,,4.958134215,1.792397519,-4.835756845,-5.451071364,1.501556577
3.917043958,2.266988646,4.22652E-05,-0.000864819,,,4.969496973,1.998722823,-3.15781731,-0.91992059,1.171402445
3.917906224,1.09106608,0.000111441,-0.0005838,,,4.97554954,0.022173789,-17.27657955,-40.12613811,2.938132124
3.917906224,1.09106608,0.000111441,-0.0005838,,,4.980850444,0.551232698,-14.34237786,-29.96427729,2.301016836
3.919923115,2.118225285,6.39724E-05,-0.000849398,,,4.987325192,1.96927193,-3.116293378,-1.292042121,0.978766064
3.919923115,2.118225285,6.39724E-05,-0.000849398,,,4.989589847,1.664947386,-6.002189515,-7.896661058,1.579485256
3.925021481,1.285068811,0.000114472,-0.000654278,,,4.990129847,1.504030793,-7.427236242,-11.21039695,1.725727228
3.925021481,1.285068811,0.000114472,-0.000654278,,,4.990210378,0.288836899,-15.88215854,-34.94818368,2.544525723
3.930805718,1.474742991,0.000112486,-0.000713634,,,4.994939667,1.62530926,-6.360913209,-8.689991745,1.606136206
3.9375,2.53125,-8.37666E-06,-0.000868317,,,4.997704927,1.886197897,-3.807981191,-3.155716093,1.18060815
3.939633118,1.653963086,0.000105818,-0.000760311,,,4.997806952,1.265610912,-9.356576889,-15.96942729,1.859664223
3.944695972,2.344659097,2.83984E-05,-0.000862543,,,5.000777888,0.962080444,-11.59950197,-21.93275261,2.012576287
3.944695972,2.344659097,2.83984E-05,-0.000862543,,,5.001558247,1.222419491,-9.686489133,-16.80748527,1.875814492
3.950454286,2.047132375,7.26368E-05,-0.000833297,,,5.006433748,1.347101228,-8.709996401,-14.29158609,1.794895352
3.950454286,2.047132375,7.26368E-05,-0.000833297,,,5.008333608,1.774714942,-4.922727036,-5.473708402,1.377840125
3.951503682,1.822729097,9.48782E-05,-0.000795488,,,5.012665834,0.710932194,-13.30019761,-26.7460542,2.144950268
3.951503682,1.822729097,9.48782E-05,-0.000795488,,,5.013745616,1.692151302,-5.723549925,-7.166317345,1.480183013
3.962199849,2.18953274,5.34128E-05,-0.000846947,,,5.018100184,1.978435233,-3.039104607,-0.832350461,0.687130214
3.962199849,2.18953274,5.34128E-05,-0.000846947,,,5.023629226,1.893916899,-3.671398397,-2.740358592,1.076416193
3.966666667,0,0,0,,,5.024029894,1.14450383,-10.26306296,-18.23547562,1.877417011
3.967230123,0.200733225,3.37919E-05,-0.00012997,,,5.032892404,0.129488817,-16.66801905,-37.82618261,2.699704679
3.96779358,0.40146645,6.10262E-05,-0.000249313,,,5.034257907,1.782433944,-4.767868007,-5.115142973,1.259280743
3.96779358,0.40146645,6.10262E-05,-0.000249313,,,5.035057991,0.986739951,-11.40594693,-21.28360019,1.94639131
3.96779358,0.40146645,6.10262E-05,-0.000249313,,,5.03753698,1.607004943,-6.48078952,-8.816308833,1.509488991
3.96779358,0.40146645,6.10262E-05,-0.000249313,,,5.044520607,1.701314605,-5.606837992,-6.815615452,1.367023991
3.96779358,0.40146645,6.10262E-05,-0.000249313,,,5.046718574,0.446380562,-14.92065143,-31.68396613,2.313990876
3.96779358,0.40146645,6.10262E-05,-0.000249313,,,5.048321378,0.401447655,-15.18139639,-32.53974782,2.355642861
3.968713308,0.600873376,8.22217E-05,-0.000357314,,,5.050504207,0.690904927,-13.40413746,-26.96022763,2.109344621
3.969633037,0.800280302,9.79946E-05,-0.000454819,,,5.052142211,1.455954498,-7.785021147,-11.8429874,1.614966992
3.969633037,0.800280302,9.79946E-05,-0.000454819,,,5.0585223,0.86756906,-12.22322574,-23.49922669,1.981256329
3.972347986,2.422329549,1.28291E-05,-0.000857672,,,5.059927592,0.529120021,-14.41291867,-30.036698,2.22361082
3.972347986,2.422329549,1.28291E-05,-0.000857672,,,5.060938903,0.816515184,-12.56808314,-24.48055326,2.010183698
3.972920032,0.994173238,0.000108354,-0.000539375,,,5.067445843,0.31835386,-15.63116141,-34.05504861,2.420048343
3.976207028,1.188066175,0.000113839,-0.000613979,,,5.069700516,0.152756827,-16.50031894,-37.2295311,2.621394705
3.976207028,1.188066175,0.000113839,-0.000613979,,,5.071520152,1.914790069,-3.203875674,-1.952599116,0.705765241
3.976207028,1.188066175,0.000113839,-0.000613979,,,5.072693406,1.681042547,-5.747854418,-7.066011932,1.312827502
3.976207028,1.188066175,0.000113839,-0.000613979,,,5.075090733,1.635534314,-6.17040246,-8.007553256,1.368297156
3.976207028,1.188066175,0.000113839,-0.000613979,,,5.079736963,1.828604933,-4.26562521,-3.848990733,1.004719142
3.976207028,1.188066175,0.000113839,-0.000613979,,,5.080657893,1.981834229,-2.102133723,-0.355766325,0.202207368
3.980985458,1.976039465,8.05045E-05,-0.000816305,,,5.087535886,1.048441029,-10.93213143,-19.82467472,1.823774337
3.980985458,1.976039465,8.05045E-05,-0.000816305,,,5.088515575,0.026322724,-17.07192702,-39.5958306,2.783563195
3.981991265,1.377740354,0.000114369,-0.000676998,,,5.09921655,0.896842605,-11.99643266,-22.74442697,1.90164006
3.987775503,1.567414533,0.000109813,-0.000730386,,,5.099668532,1.782433944,-4.637595384,-4.759131693,1.040920634
3.987775503,1.567414533,0.000109813,-0.000730386,,,5.103559301,1.517456812,-7.208384669,-10.31927142,1.428318344
3.989851863,2.267203191,4.06198E-05,-0.000846198,,,5.10585721,0.792740617,-12.69737494,-24.74284118,1.962039632
3.99273102,2.11843983,6.30649E-05,-0.000832338,,,5.113775456,0.637097693,-13.70013144,-27.72457924,2.066181121
3.999646066,1.736180544,0.000101114,-0.000768482,,,5.117628355,1.360262721,-8.522078777,-13.46435175,1.543563027
4,2.5,-4.56449E-06,-0.000850114,,,5.12340079,1.765357127,-4.802588677,-5.007959786,0.985880847
4,2.5,-4.56449E-06,-0.000850114,,,5.128898002,0.21315321,-16.11840535,-35.8321091,2.467780475
4,2.5,-4.56449E-06,-0.000850114,,,5.132210848,0.053944408,-16.88072508,-38.8946242,2.681392764
4,2.5,-4.56449E-06,-0.000850114,,,5.135193906,1.541489441,-6.958092309,-9.67694569,1.315408891
4.011516629,1.904946556,8.75496E-05,-0.000798446,,,5.135224501,1.157665323,-10.09404755,-17.44732385,1.664970975
4.011516629,1.904946556,8.75496E-05,-0.000798446,,,5.135642022,1.914790069,-2.936165165,-1.748944276,0.469344276
4.011516629,1.904946556,8.75496E-05,-0.000798446,,,5.14164038,1.282635682,-9.124474541,-14.92031927,1.55626596
4.011516629,1.904946556,8.75496E-05,-0.000798446,,,5.145144323,0.876106844,-12.10714878,-22.94954552,1.845589965
4.011516629,1.904946556,8.75496E-05,-0.000798446,,,5.145391675,1.239444261,-9.460758312,-15.77120672,1.583567559
4.011516629,1.904946556,8.75496E-05,-0.000798446,,,5.148487446,1.00016597,-11.23844384,-20.50394221,1.753266049
4.017503877,2.344873643,2.61604E-05,-0.000842909,,,5.149368381,0.823058733,-12.4637392,-23.96669513,1.87704097
4.023262191,2.047346921,7.19051E-05,-0.000816822,,,5.163601379,1.981834229,-1.557974289,-0.320927,0.033422217
4.02491075,0.501223539,7.2417E-05,-0.000302228,,,5.171302463,0.696200655,-13.27937304,-26.34234119,1.941297738
4.02491075,0.501223539,7.2417E-05,-0.000302228,,,5.171983336,1.893916899,-3.047545074,-2.056321223,0.415750393
4.025281728,0.100366612,1.77936E-05,-6.58624E-05,,,5.17284776,1.68271004,-5.554643335,-6.563462331,0.989587138
4.025830479,0.700630465,9.08774E-05,-0.000403852,,,5.174867225,1.644374723,-5.940931559,-7.367153583,1.055963883
4.025845185,0.301099837,4.82495E-05,-0.000189544,,,5.177028607,0.027621684,-16.92924315,-39.23883586,2.658436713
4.025845185,0.301099837,4.82495E-05,-0.000189544,,,5.178345818,0.53431141,-14.27787001,-29.44718159,2.067585008
4.027933841,0.897280396,0.000103904,-0.000493634,,,5.185864069,0.323545249,-15.47249215,-33.48465768,2.266250208
4.031220836,1.091173333,0.000111837,-0.00057197,,,5.187176176,0.982698539,-11.33499066,-20.68578131,1.701509213
4.031220836,1.091173333,0.000111837,-0.00057197,,,5.188267515,1.393676742,-8.179500642,-12.47869612,1.350075041
4.033176813,1.280737717,0.000114825,-0.000639049,,,5.190498772,0.158052555,-16.31338002,-36.6623483,2.457545663
4.033176813,1.280737717,0.000114825,-0.000639049,,,5.191057538,1.748502948,-4.825448367,-5.119841387,0.804131636
4.035007754,2.189747286,5.20382E-05,-0.000828927,,,5.195715594,1.876840083,-3.219364066,-2.405896263,0.416916277
4.035007754,2.189747286,5.20382E-05,-0.000828927,,,5.19989596,0.453095773,-14.73526442,-30.93167209,2.114980211
4.03896105,1.470411896,0.000112878,-0.000696089,,,5.200530211,1.568684014,-6.624090349,-8.841735293,1.102952713
4.045155891,2.422544094,9.91245E-06,-0.000836994,,,5.201498764,0.408162866,-14.98958418,-31.79283223,2.157242251
4.045155891,2.422544094,9.91245E-06,-0.000836994,,,5.20795549,0.721740089,-13.08603644,-25.70077819,1.869055488
4.04778845,1.649631991,0.000106129,-0.00074047,,,5.210174043,1.14145074,-10.15759228,-17.45469593,1.536874591
4.053793363,1.976254011,7.99019E-05,-0.000800424,,,5.21990212,1.41770937,-7.940788102,-11.86541409,1.25038569
4.053793363,1.976254011,7.99019E-05,-0.000800424,,,5.224278345,1.978435233,-1.475555434,-0.39096643,0.042002618
4.059659014,1.818398003,9.49381E-05,-0.000773385,,,5.228252445,0.135878766,-16.36991581,-36.954429,2.43529661
4.059659014,1.818398003,9.49381E-05,-0.000773385,,,5.246962597,1.834688084,-3.646552556,-3.188223262,0.415021644
4.0625,2.46875,-6.96375E-07,-0.000831928,,,5.248101845,1.299316556,-8.892917854,-14.15279086,1.316083133
4.062659768,2.267417737,3.87265E-05,-0.000827198,,,5.248862773,1.123983308,-10.25562,-17.6511017,1.479458344
4.065538925,2.118654376,6.1921E-05,-0.000814934,,,5.252451144,1.958163175,-1.757359889,-0.760048532,0.07540156
4.08202792,0.600980628,8.23219E-05,-0.000351388,,,5.252555044,1.248043592,-9.297821453,-15.16449058,1.358211648
4.08202792,0.600980628,8.23219E-05,-0.000351388,,,5.254826086,0.563243637,-14.03527408,-28.5958545,1.939105157
4.082829364,0.402522233,6.12308E-05,-0.000246035,,,5.260989516,0.884734964,-11.95999985,-22.3190542,1.65862395
4.082829364,0.402522233,6.12308E-05,-0.000246035,,,5.26418602,0.300847838,-15.50681031,-33.63478793,2.188734985
4.082947649,0.800387554,9.81043E-05,-0.000446554,,,5.264547785,0.84004819,-12.26062053,-23.17961884,1.689601323
4.082947649,0.800387554,9.81043E-05,-0.000446554,,,5.266016356,1.472992237,-7.402036101,-10.57500911,1.073222169
4.083333333,0,0,0,,,5.269012572,0.966506792,-11.38462977,-20.68534711,1.57804492
4.08389679,0.200733225,3.38461E-05,-0.000128115,,,5.284209435,1.979727942,-1.334555658,-0.364100757,0.021352866
4.08389679,0.200733225,3.38461E-05,-0.000128115,,,5.285655598,1.327845927,-8.621346849,-13.44671935,1.206718387
4.085999139,1.189271818,0.000113962,-0.000601525,,,5.285703298,0.756895164,-12.79406751,-24.72355775,1.727182856
4.085999139,1.189271818,0.000113962,-0.000601525,,,5.290171566,0.02326801,-16.78298206,-38.92807149,2.499508812
4.086234645,0.994280491,0.000108464,-0.000528686,,,5.291479113,0.588783071,-13.84754213,-27.96798898,1.86582934
4.086234645,0.994280491,0.000108464,-0.000528686,,,5.295435336,1.753669353,-4.528807222,-4.763434325,0.507178106
4.090146597,1.37340926,0.00011447,-0.00066051,,,5.298482818,1.227307831,-9.415987624,-15.41645564,1.287764449
4.090146597,1.37340926,0.00011447,-0.00066051,,,5.301939693,0.278674049,-15.5793809,-33.93149539,2.162819119
4.090311782,2.345088188,2.3668E-05,-0.000822902,,,5.302191232,1.882110325,-2.834234487,-2.200213931,0.187794667
4.090311782,2.345088188,2.3668E-05,-0.000822902,,,5.30490801,1.573850419,-6.406866972,-8.404986761,0.828934615
4.095930834,1.563083439,0.00010991,-0.000711487,,,5.30598863,0.109142928,-16.39146717,-37.20398371,2.361055125
4.095930834,1.563083439,0.00010991,-0.000711487,,,5.307863449,1.689392933,-5.221984381,-6.048663512,0.613022643
4.096070097,2.047561466,7.09401E-05,-0.00080004,,,5.309882913,1.651057617,-5.623136502,-6.819053029,0.681668978
4.096070097,2.047561466,7.09401E-05,-0.00080004,,,5.313477457,0.462240478,-14.57217475,-30.34070431,1.955112882
4.107655891,2.391294094,1.37917E-05,-0.000818838,,,5.315380161,0.40890018,-14.87009939,-31.36602732,2.005847058
4.107801398,1.73184945,0.000101058,-0.000747328,,,5.316701187,1.075731086,-10.55378911,-18.36276721,1.40095081
4.107801398,1.73184945,0.000101058,-0.000747328,,,5.326377758,1.422979612,-7.762048967,-11.4007339,1.002651509
4.107815659,2.189961831,5.04271E-05,-0.000810579,,,5.328943844,1.900276096,-2.522026818,-1.844636927,0.125247764
4.107815659,2.189961831,5.04271E-05,-0.000810579,,,5.330344913,1.309377048,-8.721021967,-13.67133496,1.135385076
4.116846084,1.909159518,8.63361E-05,-0.000776862,,,5.338718934,1.260111916,-9.111965937,-14.62944812,1.174323279
4.116846084,1.909159518,8.63361E-05,-0.000776862,,,5.35027366,0.654108881,-13.39257701,-26.4965431,1.724339851
4.125,2.4375,3.21341E-06,-0.0008138,,,5.351943481,1.982923184,-1.219845473,-0.308458051,0.006671363
4.135467673,2.267632283,3.65941E-05,-0.000807877,,,5.356988628,0.492558594,-14.35603826,-29.60629847,1.8664638
4.135467673,2.267632283,3.65941E-05,-0.000807877,,,5.36019792,0.382577456,-14.96863635,-31.7248103,1.972340086
4.13834683,2.118868922,6.05463E-05,-0.000797237,,,5.362954697,0.219534968,-15.80575974,-34.87360951,2.146546178
4.13834683,2.118868922,6.05463E-05,-0.000797237,,,5.364023232,1.407421762,-7.849647376,-11.60985792,0.944663984
4.139145091,0.700737717,9.07494E-05,-0.000396728,,,5.364892117,1.777310263,-4.096099971,-4.198381872,0.316441959
4.139145091,0.700737717,9.07494E-05,-0.000396728,,,5.371323199,1.137439273,-10.03747118,-16.96482051,1.244102414
4.139946534,0.502279322,7.24247E-05,-0.000297806,,,5.372450703,1.919898015,-2.165961951,-1.465984397,0.06240533
4.140880969,0.30215562,4.83315E-05,-0.000187318,,,5.376685232,1.553442576,-6.490375894,-8.649076271,0.704032167
4.141012947,1.092378976,0.000111693,-0.000560697,,,5.389060218,0.979697641,-11.18361758,-20.01671213,1.369019515
4.141248453,0.897387649,0.000103744,-0.000484103,,,5.391644729,1.795476034,-3.818104291,-3.821740451,0.242020612
4.141248453,0.897387649,0.000103744,-0.000484103,,,5.404116488,0.468636746,-14.44634106,-29.91644677,1.825517809
4.141948395,0.100366612,1.77776E-05,-6.49604E-05,,,5.405217378,1.165072844,-9.789245725,-16.31748037,1.154639494
4.141948395,0.100366612,1.77776E-05,-6.49604E-05,,,5.405423076,0.411995907,-14.76148587,-31.00919958,1.880564286
4.142968923,1.28194336,0.000114625,-0.000625198,,,5.405750944,0.770086013,-12.60147351,-24.06069381,1.538253406
4.147116382,1.466080802,0.000112702,-0.000678305,,,5.40831092,1.697654662,-4.938267328,-5.719043678,0.396144411
4.147116382,1.466080802,0.000112702,-0.000678305,,,5.410708247,1.652146429,-5.430544082,-6.618053084,0.471278525
4.152811782,2.313838188,2.74744E-05,-0.000804799,,,5.413939538,0.602239036,-13.65226317,-27.29618279,1.68285912
4.155943782,1.645300897,0.000105889,-0.000720315,,,5.414330706,1.537884725,-6.578692558,-8.881558837,0.653717272
4.155943782,1.645300897,0.000105889,-0.000720315,,,5.416274603,0.901797706,-11.70531754,-21.4585501,1.399749934
4.159122818,1.980466973,7.81678E-05,-0.000777475,,,5.419832873,0.857110932,-12.00816636,-22.32048633,1.436462728
4.164988468,1.822610965,9.37977E-05,-0.000752926,,,5.420923442,1.838879284,-3.214625455,-2.975049806,0.134113813
4.170155891,2.360044094,1.76697E-05,-0.000800771,,,5.421969814,0.278674049,-15.44665527,-33.54069364,1.99827033
4.180623564,2.190176377,4.85884E-05,-0.000791956,,,5.423653854,0.109142928,-16.24487625,-36.82860827,2.189971039
4.180623564,2.190176377,4.85884E-05,-0.000791956,,,5.43974132,1.326855808,-8.441587938,-13.02186915,0.90342968
4.180623564,2.190176377,4.85884E-05,-0.000791956,,,5.440069211,1.719219429,-4.640785126,-5.26516308,0.307039425
4.180623564,2.190176377,4.85884E-05,-0.000791956,,,5.442374921,0.02326801,-16.58142939,-38.44828482,2.267048941
4.180623564,2.190176377,4.85884E-05,-0.000791956,,,5.442599458,1.400015243,-7.807416311,-11.56551257,0.801837512
4.180623564,2.190176377,4.85884E-05,-0.000791956,,,5.443469928,1.919898015,-2.094620155,-1.455310504,0.025790268
4.1875,2.40625,7.15003E-06,-0.000795772,,,5.443808894,1.982923184,-1.193290838,-0.308197562,-0.001386906
4.195791249,1.190477461,0.000113504,-0.000588844,,,5.446795445,1.285355748,-8.78021047,-13.82741434,0.942462047
4.195791249,1.190477461,0.000113504,-0.000588844,,,5.453639199,0.582087703,-13.73623889,-27.56536614,1.646865114
4.196026755,0.995486134,0.000108067,-0.000518614,,,5.455397562,1.63367755,-5.550861753,-6.921209799,0.425896846
4.196262261,0.800494807,9.77041E-05,-0.000438188,,,5.46006667,0.303455622,-15.27999872,-32.94497776,1.918633212
4.196262261,0.800494807,9.77041E-05,-0.000438188,,,5.464091335,1.795476034,-3.702577474,-3.782748105,0.156249873
4.196262261,0.800494807,9.77041E-05,-0.000438188,,,5.464921689,1.013217246,-10.86705469,-19.13663893,1.213873066
4.196262261,0.800494807,9.77041E-05,-0.000438188,,,5.475688143,1.20535149,-9.394473775,-15.33468221,0.98760994
4.196262261,0.800494807,9.77041E-05,-0.000438188,,,5.475960362,1.704699783,-4.74742799,-5.516039428,0.280469587
4.196262261,0.800494807,9.77041E-05,-0.000438188,,,5.481491112,1.500873425,-6.831284794,-9.494116329,0.589318821
4.197063705,0.602036411,8.20773E-05,-0.000345774,,,5.485701003,0.752258797,-12.64247434,-24.16838226,1.438896799
4.197865149,0.403578016,6.11096E-05,-0.000242701,,,5.488891386,1.664666137,-5.166099684,-6.278518027,0.32542232
4.197865149,0.403578016,6.11096E-05,-0.000242701,,,5.493255864,1.900276096,-2.324273118,-1.812600731,0.020140869
4.197967673,2.236382283,4.02444E-05,-0.000789849,,,5.494325394,1.783244945,-3.806471613,-3.998058689,0.142913278
4.197967673,2.236382283,4.02444E-05,-0.000789849,,,5.498815868,1.040850817,-10.62918564,-18.50518616,1.131826249
4.198932574,0.201789008,3.38757E-05,-0.000126908,,,5.500485922,0.135878766,-16.03718721,-36.083054,2.045504845
4.199938707,1.374614902,0.000113921,-0.000645227,,,5.512565427,1.979727942,-1.2438467,-0.365474236,-0.005371787
4.2,0,0,0,,,5.523314195,0.471104834,-14.31386429,-29.51434036,1.659674543
4.2,0,0,0,,,5.523489923,1.888045007,-2.467013366,-2.035986177,0.016029904
4.2,0,0,0,,,5.524414842,0.423391611,-14.57838868,-30.43562889,1.705994421
4.201399551,2.051774428,6.86242E-05,-0.000775709,,,5.525400664,0.732107463,-12.73415598,-24.4492467,1.401756849
4.204086166,1.558752344,0.000109433,-0.000692377,,,5.529722113,1.560204054,-6.18405835,-8.264001734,0.425299283
4.204086166,1.558752344,0.000109433,-0.000692377,,,5.531146836,0.918520843,-11.47584217,-20.80953582,1.208994945
4.204086166,1.558752344,0.000109433,-0.000692377,,,5.535370893,0.865472731,-11.83890238,-21.83127351,1.256290313
4.204086166,1.558752344,0.000109433,-0.000692377,,,5.536492306,0.559585301,-13.78959347,-27.76426645,1.554261072
4.204086166,1.558752344,0.000109433,-0.000692377,,,5.538582778,0.160660339,-15.88343451,-35.49505321,1.961980486
4.204086166,1.558752344,0.000109433,-0.000692377,,,5.541655092,0.335777549,-15.02840526,-32.08585671,1.77145783
4.213130853,1.736062412,9.99068E-05,-0.000728039,,,5.548047174,1.109318045,-10.0612741,-17.04652314,0.981028837
4.215311782,2.282588188,3.12353E-05,-0.000786814,,,5.548456578,1.965208296,-1.444084608,-0.627806064,-0.01021866
4.215311782,2.282588188,3.12353E-05,-0.000786814,,,5.555370653,0.027621684,-16.42994692,-38.04583228,2.084865986
4.222175539,1.91337248,8.45991E-05,-0.000754707,,,5.555717361,1.421894824,-7.457453563,-10.92207807,0.582067295
4.222175539,1.91337248,8.45991E-05,-0.000754707,,,5.557936707,1.586308282,-5.882283819,-7.725558786,0.348329874
4.232655891,2.328794094,2.15302E-05,-0.000782834,,,5.562741923,1.781507086,-3.745950075,-4.004622791,0.08877142
4.232655891,2.328794094,2.15302E-05,-0.000782834,,,5.568203306,1.724049845,-4.399257311,-5.084127508,0.149880248
4.243676285,2.123081884,5.75762E-05,-0.000771512,,,5.571382952,0.951324928,-11.20307435,-20.0718696,1.116467375
4.243676285,2.123081884,5.75762E-05,-0.000771512,,,5.573779529,1.985480354,-1.183099608,-0.261529483,-0.006561934
4.25,2.375,1.10979E-05,-0.000777888,,,5.579096168,1.690326223,-4.759291704,-5.717260486,0.182719412
4.25,2.375,1.10979E-05,-0.000777888,,,5.582498753,0.841550884,-11.95474638,-22.17799425,1.212940071
4.250805057,1.093584619,0.000110976,-0.000549278,,,5.585288408,1.862525817,-2.750968931,-2.497998444,0.007402802
4.251040563,0.898593291,0.000103119,-0.000475239,,,5.586062586,1.355157677,-8.010054718,-12.1748234,0.626081695
4.251040563,0.898593291,0.000103119,-0.000475239,,,5.588806047,1.227231071,-9.083164814,-14.66098719,0.782019953
4.252761033,1.283149003,0.00011382,-0.000611147,,,5.591969589,0.675562433,-13.02859452,-25.37234341,1.364713967
4.254180875,0.7017935,9.02055E-05,-0.000389881,,,5.593116711,1.313657617,-8.35790412,-12.96985772,0.668812282
4.254180875,0.7017935,9.02055E-05,-0.000389881,,,5.600595809,0.057040135,-16.26204291,-37.352809,1.981789244
4.254982319,0.503335105,7.20414E-05,-0.000293334,,,5.602354249,0.225385509,-15.51473905,-34.06796188,1.800741416
4.255916754,0.303211403,4.81503E-05,-0.000185059,,,5.613836919,1.623320161,-5.427221937,-6.968194916,0.232942075
4.256908492,1.467286445,0.000111781,-0.000661561,,,5.614207275,1.063170146,-10.33743455,-17.80152359,0.934413006
4.256908492,1.467286445,0.000111781,-0.000661561,,,5.620367471,1.911496994,-2.132057441,-1.599952158,-0.019479908
4.256984179,0.101422395,1.78392E-05,-6.47278E-05,,,5.624224369,0.933301865,-11.27555977,-20.30098189,1.060125987
4.256984179,0.101422395,1.78392E-05,-6.47278E-05,,,5.625735905,1.458042959,-7.031096828,-10.12529368,0.436066563
4.260467673,2.205132283,4.38026E-05,-0.000771972,,,5.631116113,0.876575932,-11.66527339,-21.38499279,1.109468716
4.260467673,2.205132283,4.38026E-05,-0.000771972,,,5.641699069,1.928573811,-1.920860602,-1.289754799,-0.023227584
4.261273237,1.649513859,0.000104657,-0.000702243,,,5.645225156,0.029418451,-16.32512364,-37.78186659,1.941257456
4.261273237,1.649513859,0.000104657,-0.000702243,,,5.64806058,1.987768911,-1.187920004,-0.220230244,-0.007224735
4.264452273,1.984679935,7.59209E-05,-0.000753987,,,5.651667955,0.739432695,-12.56227964,-23.99377688,1.220434818
4.270317923,1.826823927,9.21229E-05,-0.000732001,,,5.653950499,1.484147187,-6.749775859,-9.592407208,0.367994787
4.277811782,2.251338188,3.49325E-05,-0.000768992,,,5.657710738,1.80449701,-3.396110448,-3.555388355,0.014897138
4.295155891,2.297544094,2.53562E-05,-0.00076507,,,5.658719933,1.047987842,-10.40281477,-18.00736276,0.889218742
4.305583359,1.191683103,0.000112443,-0.000576047,,,5.660271812,0.566766207,-13.62557512,-27.31262825,1.379405721
4.305583359,1.191683103,0.000112443,-0.000576047,,,5.66485007,0.167985571,-15.71696007,-35.03015761,1.769217134
4.305818865,0.996691776,0.000107111,-0.000508465,,,5.665434598,0.342958455,-14.86571151,-31.63162499,1.592869045
4.305818865,0.996691776,0.000107111,-0.000508465,,,5.666930051,1.215694042,-9.083936782,-14.74785663,0.686170286
4.306729006,2.055987391,6.58091E-05,-0.00075088,,,5.683426552,0.480393543,-14.1032127,-28.92943962,1.433219737
4.306729006,2.055987391,6.58091E-05,-0.00075088,,,5.684527198,0.43268032,-14.36778778,-29.8497188,1.47845951
4.307343648,1.561264524,0.000108164,-0.00067554,,,5.685348239,1.942627802,-1.755551542,-1.034534381,-0.025397725
4.307343648,1.561264524,0.000108164,-0.00067554,,,5.688063168,1.544341561,-6.129591381,-8.413827163,0.256284395
4.309016905,0.804036717,9.70073E-05,-0.000431301,,,5.691048204,1.753787974,-3.944160378,-4.48448623,0.03582251
4.309016905,0.804036717,9.70073E-05,-0.000431301,,,5.692622344,0.768937165,-12.32859701,-23.33363214,1.136335039
4.309730818,1.375820545,0.000112748,-0.000629782,,,5.694065456,1.379728894,-7.655690074,-11.54931859,0.452220662
4.309730818,1.375820545,0.000112748,-0.000629782,,,5.701941066,1.720064351,-4.304169674,-5.106166572,0.0574231
4.312099489,0.603092194,8.13824E-05,-0.000340126,,,5.702439478,1.330463762,-8.077718036,-12.48495587,0.502773133
4.312099489,0.603092194,8.13824E-05,-0.000340126,,,5.702445028,0.144717562,-15.78401857,-35.39583153,1.737181604
4.3125,2.34375,1.50407E-05,-0.000760188,,,5.708805734,1.646310085,-5.079255244,-6.479070316,0.123880349
4.312900933,0.404633799,6.06528E-05,-0.000239342,,,5.711442709,1.200511738,-9.154213079,-14.97069318,0.646672465
4.312900933,0.404633799,6.06528E-05,-0.000239342,,,5.714047841,1.836435061,-3.001110388,-2.961576323,-0.021054187
4.313968359,0.202844791,3.37158E-05,-0.000125682,,,5.727559281,1.410717481,-7.337416633,-10.92139505,0.377261893
4.313968359,0.202844791,3.37158E-05,-0.000125682,,,5.735379439,1.853511878,-2.799213648,-2.648635797,-0.030881951
4.316666667,0,0,0,,,5.740018848,0.598701644,-13.35619591,-26.52032983,1.243073195
4.318460308,1.740275374,9.82036E-05,-0.000708392,,,5.746446319,0.320069564,-14.9043083,-31.89245255,1.50382653
4.318460308,1.740275374,9.82036E-05,-0.000708392,,,5.74980762,1.987768911,-1.247238038,-0.220245302,-0.008123199
4.323520394,2.138037789,5.31347E-05,-0.000752369,,,5.750828048,1.507599174,-6.410447189,-9.062944746,0.241096549
4.327504994,1.917585442,8.23478E-05,-0.000732137,,,5.755280895,1.312440699,-8.170169168,-12.76675725,0.463932574
4.327504994,1.917585442,8.23478E-05,-0.000732137,,,5.756842079,1.038102624,-10.36896105,-18.0241764,0.773338584
4.340311782,2.220088188,3.85462E-05,-0.000751374,,,5.757770569,1.884598995,-2.441999638,-2.083065343,-0.038421037
4.340311782,2.220088188,3.85462E-05,-0.000751374,,,5.758126977,0.024781573,-16.23210467,-37.61413898,1.767715485
4.357655891,2.266294094,2.91292E-05,-0.000747524,,,5.758757529,0.952190345,-10.99824741,-19.67275947,0.862944448
4.360165974,1.469798625,0.000110302,-0.000646034,,,5.764006742,1.942627802,-1.777916225,-1.03363987,-0.029956919
4.360597167,1.094790261,0.000109667,-0.000537819,,,5.764563011,0.904405441,-11.33293042,-20.58242394,0.905865788
4.360597167,1.094790261,0.000109667,-0.000537819,,,5.773477318,1.404166457,-7.342602453,-11.00248271,0.338294011
4.362553144,1.284354646,0.000112388,-0.000597025,,,5.777659154,1.639498398,-5.082623201,-6.577216233,0.085111406
4.362553144,1.284354646,0.000112388,-0.000597025,,,5.778700395,0.116242581,-15.83524567,-35.7840875,1.651088395
4.363795207,0.902135202,0.00010204,-0.00046702,,,5.780973236,0.628206114,-13.13651658,-25.86933785,1.161802946
4.364530719,1.652026039,0.000102983,-0.000683977,,,5.78132413,1.778621835,-3.615431378,-4.010634754,-0.014809706
4.366935519,0.705335411,8.93769E-05,-0.000384282,,,5.784041277,0.296801554,-14.9857631,-32.26413687,1.474255079
4.369781728,1.988892897,7.31819E-05,-0.000730128,,,5.784073769,0.81395864,-11.93659033,-22.28735462,0.974212872
4.369781728,1.988892897,7.31819E-05,-0.000730128,,,5.789508575,1.50208071,-6.420412153,-9.140748682,0.214435423
4.370018103,0.504390888,7.12586E-05,-0.000288856,,,5.79282491,1.355154807,-7.755634039,-11.91385789,0.375477492
4.370018103,0.504390888,7.12586E-05,-0.000288856,,,5.794255154,1.738588189,-4.038935603,-4.742711291,0.002231762
4.370952538,0.304267186,4.76994E-05,-0.000182791,,,5.797600952,1.156015651,-9.413576183,-15.70311448,0.595813756
4.370952538,0.304267186,4.76994E-05,-0.000182791,,,5.802118466,0.491726311,-13.92426836,-28.45936406,1.265810894
4.373650846,0.101422395,1.76189E-05,-6.38187E-05,,,5.803425054,0.435085472,-14.24006714,-29.55023599,1.317730141
4.375,2.3125,1.89615E-05,-0.000742719,,,5.806647081,1.798893893,-3.385206812,-3.637593697,-0.030102485
4.375647378,1.831036889,8.99163E-05,-0.000710771,,,5.815618862,1.853511878,-2.786846346,-2.644312982,-0.043903836
4.375647378,1.831036889,8.99163E-05,-0.000710771,,,5.816339682,1.633979933,-5.104870725,-6.665736435,0.068741025
4.386573115,2.070943296,6.16635E-05,-0.000732629,,,5.823685531,1.928573811,-1.956060277,-1.286740432,-0.036863339
4.403364503,2.152993695,4.82665E-05,-0.000732695,,,5.82669894,1.985480354,-1.322248715,-0.261346203,-0.009981822
4.41060113,1.563776704,0.00010633,-0.000658606,,,5.840173191,1.732037166,-4.081825616,-4.854357998,-0.00908727
4.41060113,1.563776704,0.00010633,-0.000658606,,,5.841780745,0.233815527,-15.24146442,-33.37104219,1.452322507
4.4129883,1.378332725,0.000111043,-0.000615592,,,5.848054401,0.407463787,-14.34929261,-29.99867444,1.285057262
4.415375469,1.192888746,0.000110764,-0.000563258,,,5.848127137,1.798893893,-3.372226159,-3.63387126,-0.038701777
4.415375469,1.192888746,0.000110764,-0.000563258,,,5.850560914,1.853511878,-2.784206147,-2.642394987,-0.048181199
4.415375469,1.192888746,0.000110764,-0.000563258,,,5.850735826,0.52675136,-13.67684257,-27.69328856,1.170692708
4.415375469,1.192888746,0.000110764,-0.000563258,,,5.852375991,0.705162415,-12.58462693,-24.25904677,0.998817
4.415375469,1.192888746,0.000110764,-0.000563258,,,5.853058372,1.224997145,-8.794150072,-14.32382991,0.461626287
4.415375469,1.192888746,0.000110764,-0.000563258,,,5.858627584,1.928573811,-1.967480794,-1.286407447,-0.038037045
4.418573509,1.000233687,0.000105627,-0.000498893,,,5.868178996,1.985480354,-1.349090824,-0.26135206,-0.010053769
4.420155891,2.235044094,3.28287E-05,-0.00073024,,,5.868722223,1.772070811,-3.649594674,-4.119605714,-0.034292896
4.420155891,2.235044094,3.28287E-05,-0.00073024,,,5.869501382,1.518456177,-6.184715624,-8.789414784,0.141834292
4.421717789,1.742787554,9.61106E-05,-0.000688693,,,5.879834126,1.451920875,-6.793633743,-10.02478996,0.199059591
4.421771548,0.807578628,9.57746E-05,-0.000424378,,,5.884684775,1.260978741,-8.461509224,-13.6109584,0.393109991
4.421771548,0.807578628,9.57746E-05,-0.000424378,,,5.890243947,1.620424701,-5.182230986,-6.892807437,0.044595083
4.424854133,0.606634105,8.04821E-05,-0.000335787,,,5.895667555,1.062105607,-10.03974695,-17.37013741,0.591985118
4.427936717,0.405689582,5.98561E-05,-0.000235994,,,5.89613219,1.410634344,-7.152493983,-10.78749569,0.228912714
4.427936717,0.405689582,5.98561E-05,-0.000235994,,,5.896365619,0.116242581,-15.73153697,-35.55480695,1.476258324
4.427936717,0.405689582,5.98561E-05,-0.000235994,,,5.896378002,0.437073606,-14.14314987,-29.34075795,1.195377897
4.427936717,0.405689582,5.98561E-05,-0.000235994,,,5.900366015,0.499720339,-13.78693287,-28.12718154,1.133351497
4.427936717,0.405689582,5.98561E-05,-0.000235994,,,5.904071397,0.296801554,-14.87660975,-32.03666799,1.310410397
4.427936717,0.405689582,5.98561E-05,-0.000235994,,,5.910330333,0.024781573,-16.10199801,-37.31437574,1.529541625
4.430635025,0.202844791,3.31991E-05,-0.000123813,,,5.921672767,1.884598995,-2.456250296,-2.078348632,-0.05099586
4.432834449,1.921798404,7.95986E-05,-0.000709327,,,5.922588899,0.652691521,-12.84963868,-25.15226065,0.965213942
4.432834449,1.921798404,7.95986E-05,-0.000709327,,,5.922899245,0.837961623,-11.63492186,-21.60677653,0.788488304
4.432834449,1.921798404,7.95986E-05,-0.000709327,,,5.927824693,1.68783804,-4.48732266,-5.647936414,-0.010915978
4.432834449,1.921798404,7.95986E-05,-0.000709327,,,5.92790894,1.942627802,-1.843288255,-1.032691601,-0.033570423
4.432834449,1.921798404,7.95986E-05,-0.000709327,,,5.938332281,0.983238895,-10.58726516,-18.81866744,0.629108772
4.432834449,1.921798404,7.95986E-05,-0.000709327,,,5.939431398,1.853511878,-2.784673494,-2.638938636,-0.055323628
4.432834449,1.921798404,7.95986E-05,-0.000709327,,,5.944137763,0.935453991,-10.92877037,-19.71987802,0.670404279
4.433333333,0,0,0,,,5.944778329,0.321744332,-14.71453174,-31.48507327,1.234355676
4.4375,2.28125,2.28417E-05,-0.000725525,,,5.94595048,1.32479402,-7.857158789,-12.36118745,0.277845828
4.449625837,2.003848803,6.92718E-05,-0.000712822,,,5.951873884,1.721561662,-4.13750421,-5.029214107,-0.032278395
4.449625837,2.003848803,6.92718E-05,-0.000712822,,,5.953859579,1.987768911,-1.381002586,-0.220132847,-0.008444291
4.463423456,1.472310805,0.000108246,-0.000630509,,,5.956780328,1.830916597,-3.019894106,-3.046461802,-0.056518472
4.465810625,1.286866826,0.00011046,-0.000584185,,,5.964396477,0.629921076,-12.9528139,-25.52597083,0.937452672
4.465810625,1.286866826,0.00011046,-0.000584185,,,5.974678504,0.144717562,-15.54191706,-34.86650307,1.339217832
4.466417225,2.085899202,5.71294E-05,-0.00071393,,,5.978789856,1.571253142,-5.594345167,-7.772174907,0.044811422
4.466417225,2.085899202,5.71294E-05,-0.00071393,,,5.979910347,1.103521799,-9.634941159,-16.49470007,0.470142241
4.467788201,1.654538219,0.000100754,-0.00066568,,,6.003051149,1.778611626,-3.548643415,-3.98973095,-0.055275828
4.473351811,1.098332172,0.000107759,-0.000526881,,,6.01153675,1.139503394,-9.321572975,-15.78823721,0.408634208
4.473351811,1.098332172,0.000107759,-0.000526881,,,6.013812759,0.824471122,-11.64127493,-21.74615895,0.705085729
4.47654985,0.905677113,0.000100386,-0.000458813,,,6.01502845,1.942627802,-1.882682932,-1.032426121,-0.033472927
4.47890486,1.833549069,8.73904E-05,-0.000689645,,,6.015385436,0.16966034,-15.39705274,-34.31819244,1.262013813
4.47890486,1.833549069,8.73904E-05,-0.000689645,,,6.021201916,1.520215271,-6.04310059,-8.697625697,0.065453784
4.479690162,0.708877322,8.80536E-05,-0.000378683,,,6.021758543,0.442460506,-14.00368642,-29.04024987,1.033677294
4.482772747,0.507932799,7.03566E-05,-0.000285737,,,6.023567202,0.029418451,-16.00012237,-37.03475249,1.352184678
4.482772747,0.507932799,7.03566E-05,-0.000285737,,,6.025117974,0.495232986,-13.70230571,-28.02166508,0.984867255
4.483208612,2.167949601,4.29875E-05,-0.000712574,,,6.032724181,0.350814268,-14.49031579,-30.78876529,1.095591486
4.483208612,2.167949601,4.29875E-05,-0.000712574,,,6.03749998,1.478928739,-6.409304099,-9.451304509,0.089444424
4.487619205,0.304267186,4.68265E-05,-0.000179922,,,6.042361377,1.624233212,-5.04985238,-6.788153061,-0.006428091
4.487619205,0.304267186,4.68265E-05,-0.000179922,,,6.044017082,1.230883976,-8.553984273,-14.05017326,0.298349799
4.490317513,0.101422395,1.72953E-05,-6.29224E-05,,,6.048482215,0.598353404,-13.07203657,-26.01496135,0.869741822
4.5,2.25,2.66609E-05,-0.000708655,,,6.055238954,1.377590985,-7.299211625,-11.3156516,0.162460704
4.5,2.25,2.66609E-05,-0.000708655,,,6.055620337,0.801700677,-11.75794582,-22.13040494,0.683767916
4.5,2.25,2.66609E-05,-0.000708655,,,6.060189664,1.928573811,-2.044575705,-1.28510628,-0.039022816
4.512125837,1.972598803,7.15574E-05,-0.000696044,,,6.066410567,1.657956834,-4.715440735,-6.170643307,-0.026937004
4.512125837,1.972598803,7.15574E-05,-0.000696044,,,6.066551175,1.987768911,-1.454764581,-0.220153499,-0.008103905
4.513858612,1.566288884,0.000103921,-0.000641738,,,6.070605322,1.010481318,-10.25821919,-18.16469147,0.480771203
4.513858612,1.566288884,0.000103921,-0.000641738,,,6.071890803,0.059028269,-15.84456041,-36.38541743,1.259799986
4.516245781,1.380844905,0.000108758,-0.000601492,,,6.077497067,0.953755385,-10.67052585,-19.2284319,0.526430285
4.516245781,1.380844905,0.000108758,-0.000601492,,,6.077538594,1.90597853,-2.276331519,-1.691372327,-0.04715666
4.516252866,1.905037793,7.93036E-05,-0.000689388,,,6.087309055,0.233241322,-15.04230347,-32.98262599,1.11558359
4.516252866,1.905037793,7.93036E-05,-0.000689388,,,6.091597058,1.729440067,-4.017294168,-4.872647719,-0.053235013
4.52435812,1.201283332,0.000108571,-0.000552802,,,6.096406833,1.836640433,-2.967698867,-2.938725996,-0.060920004
4.52435812,1.201283332,0.000108571,-0.000552802,,,6.108149338,1.053195426,-9.902882511,-17.33060411,0.412451081
4.524975271,1.745299734,9.34853E-05,-0.000669042,,,6.114990268,0.029609818,-15.93996375,-36.89826647,1.214462372
4.524975271,1.745299734,9.34853E-05,-0.000669042,,,6.119005468,0.731152612,-12.17272971,-23.40121477,0.682022775
4.528917225,2.054649202,5.99174E-05,-0.000697224,,,6.123021762,1.193361501,-8.789562023,-14.6995734,0.28015259
4.531328152,1.003775598,0.000103534,-0.000489395,,,6.124884676,1.573930397,-5.480150109,-7.68925909,0.001723136
4.531328152,1.003775598,0.000103534,-0.000489395,,,6.127127256,0.926724364,-10.82225832,-19.69299874,0.507653288
4.534526192,0.811120539,9.40048E-05,-0.000417507,,,6.137537576,1.383131243,-7.186542912,-11.17932475,0.120215796
4.534526192,0.811120539,9.40048E-05,-0.000417507,,,6.144232268,1.524918747,-5.919986634,-8.579131937,0.024219221
4.537608776,0.610176016,7.91351E-05,-0.000331469,,,6.1480476,0.170440526,-15.29851081,-34.11883557,1.077307707
4.537608776,0.610176016,7.91351E-05,-0.000331469,,,6.148304024,1.985480354,-1.527821523,-0.261232151,-0.009063086
4.543355221,0.40857506,5.89243E-05,-0.00023362,,,6.153433707,1.613964043,-5.095025889,-6.95734929,-0.021953065
4.543355221,0.40857506,5.89243E-05,-0.00023362,,,6.161254214,1.050375935,-9.878303885,-17.34378737,0.37563303
4.545708612,2.136699601,4.62682E-05,-0.000695964,,,6.161642562,1.717151934,-4.120458848,-5.089564015,-0.054950125
4.547301692,0.202844791,3.24899E-05,-0.000121978,,,6.162772565,0.351579082,-14.38622544,-30.60541974,0.931987242
4.547301692,0.202844791,3.24899E-05,-0.000121978,,,6.167756353,1.190986412,-8.772095651,-14.7185028,0.255380927
4.55,0,0,0,,,6.167864145,1.855818695,-2.790037083,-2.592308239,-0.057823091
4.562323277,1.816788458,8.66906E-05,-0.00067061,,,6.16889911,1.958657272,-1.798543409,-0.743929998,-0.023484197
4.5625,2.21875,3.03971E-05,-0.000692162,,,6.175423445,0.951346061,-10.60334744,-19.18984553,0.447504169
4.566680937,1.474822985,0.000105607,-0.000615148,,,6.178530598,0.599118218,-12.96102974,-25.8504602,0.728088964
4.566680937,1.474822985,0.000105607,-0.000615148,,,6.182272168,1.380756154,-7.174780255,-11.20695587,0.104875763
4.571045682,1.657050399,9.79636E-05,-0.000647539,,,6.184353813,0.145658952,-15.39012141,-34.55479425,1.043384192
4.571045682,1.657050399,9.79636E-05,-0.000647539,,,6.1882825,0.802480862,-11.6398848,-21.98340751,0.557999507
4.574793276,1.295261412,0.000107805,-0.000572293,,,6.189096592,1.005061135,-10.19633525,-18.1722605,0.393080638
4.582334462,1.106726758,0.00010543,-0.000517995,,,6.189979873,0.443449815,-13.8655204,-28.81157128,0.832768625
4.589304494,0.909219024,9.81614E-05,-0.000450722,,,6.193339304,0.496222295,-13.56247216,-27.79836961,0.790148502
4.589304494,0.909219024,9.81614E-05,-0.000450722,,,6.197337144,1.522099256,-5.916683389,-8.619655474,0.014117911
4.591417225,2.023399202,6.24504E-05,-0.000680931,,,6.200936002,1.628483689,-4.942129241,-6.688783461,-0.033252702
4.591417225,2.023399202,6.24504E-05,-0.000680931,,,6.20165764,1.729383023,-3.99771149,-4.866584367,-0.058609211
4.592444806,0.712419233,8.62393E-05,-0.000373158,,,6.207879222,1.868049784,-2.680669848,-2.371962628,-0.05424754
4.592444806,0.712419233,8.62393E-05,-0.000373158,,,6.216401404,1.973176919,-1.684090235,-0.482407608,-0.015256542
4.595544253,1.955838192,7.11683E-05,-0.000676073,,,6.225491846,1.585630552,-5.326456494,-7.461219112,-0.019960502
4.598191251,0.510818277,6.89539E-05,-0.000282222,,,6.227403719,0.024942778,-15.89646081,-36.84864694,1.05127825
4.599671282,1.888277181,7.8695E-05,-0.000669981,,,6.228966341,0.823221736,-11.46632568,-21.55815676,0.506490191
4.599671282,1.888277181,7.8695E-05,-0.000669981,,,6.245661823,0.323513827,-14.47690864,-31.0544724,0.849713443
4.603037709,0.307152664,4.60641E-05,-0.000178699,,,6.253853008,1.219743181,-8.473763147,-14.14460685,0.18928
4.606984179,0.101422395,1.68708E-05,-6.20464E-05,,,6.257610104,0.116998741,-15.47779653,-35.02782497,0.959239134
4.606984179,0.101422395,1.68708E-05,-6.20464E-05,,,6.26507488,1.36645019,-7.24400057,-11.44387979,0.086861008
4.608208612,2.105449601,4.93626E-05,-0.000679774,,,6.26527997,0.631690571,-12.69482651,-25.14981,0.616110169
4.608393688,1.728539123,9.23307E-05,-0.00065095,,,6.272774442,1.125633531,-9.210310034,-15.87653041,0.247371738
4.617116093,1.568801064,0.000100935,-0.000625124,,,6.279295225,1.786812265,-3.454501665,-3.830137235,-0.060978875
4.617116093,1.568801064,0.000100935,-0.000625124,,,6.281968036,0.298732254,-14.58228947,-31.49480548,0.820952336
4.617116093,1.568801064,0.000100935,-0.000625124,,,6.284105,1.894012631,-2.455230303,-1.904968118,-0.044880898
4.617116093,1.568801064,0.000100935,-0.000625124,,,6.293202757,0.922821667,-10.7182871,-19.64248569,0.381876672
4.617116093,1.568801064,0.000100935,-0.000625124,,,6.296228359,1.087461159,-9.490165231,-16.5733223,0.261861943
4.617116093,1.568801064,0.000100935,-0.000625124,,,6.298737671,1.465058876,-6.371762056,-9.638065791,0.024159038
4.625,2.1875,3.40247E-05,-0.000676103,,,6.300087597,1.729383023,-3.986013299,-4.861581001,-0.0585114
4.625228432,1.389239491,0.000105641,-0.000588171,,,6.30472077,0.968070278,-10.38156812,-18.79028507,0.341618592
4.633340771,1.209677918,0.000105746,-0.000542425,,,6.305963811,0.652431445,-12.53598325,-24.72358288,0.562672679
4.633340771,1.209677918,0.000105746,-0.000542425,,,6.309840592,0.82844154,-11.37065985,-21.40117094,0.436822938
4.640310803,1.012170184,0.000101116,-0.000482045,,,6.311215623,1.977404719,-1.692683428,-0.406570936,-0.011614041
4.645741693,1.800027846,8.56208E-05,-0.000652193,,,6.314536997,0.439532798,-13.80253304,-28.76628594,0.694707161
4.647280835,0.81466245,9.17075E-05,-0.000410778,,,6.31852501,0.50217953,-13.44092967,-27.56758535,0.650370121
4.647280835,0.81466245,9.17075E-05,-0.000410778,,,6.320772998,1.693284312,-4.315869204,-5.510270674,-0.053782194
4.647280835,0.81466245,9.17075E-05,-0.000410778,,,6.322454686,1.518576496,-5.889571861,-8.662974047,-0.003749004
4.647280835,0.81466245,9.17075E-05,-0.000410778,,,6.333073613,0.235336501,-14.87344327,-32.66756242,0.794298111
4.647280835,0.81466245,9.17075E-05,-0.000410778,,,6.357636461,0.410114347,-13.94055569,-29.29278353,0.664892789
4.647280835,0.81466245,9.17075E-05,-0.000410778,,,6.363867971,1.040688569,-9.80100033,-17.40900034,0.256369536
4.65302728,0.613061494,7.724E-05,-0.000326808,,,6.366821199,0.526801227,-13.26571333,-27.06108975,0.584928299
4.654464099,1.640289788,9.63422E-05,-0.000630406,,,6.368023846,1.302384926,-7.722709344,-12.58816466,0.094385402
4.654464099,1.640289788,9.63422E-05,-0.000630406,,,6.369365722,0.696407147,-12.21268958,-23.84700358,0.476428182
4.658773726,0.411460538,5.76489E-05,-0.000231294,,,6.375275327,0.116998741,-15.41844701,-34.91492899,0.799069333
4.658773726,0.411460538,5.76489E-05,-0.000231294,,,6.376323949,1.617484545,-4.990901849,-6.871442763,-0.039207123
4.662720196,0.205730269,3.20081E-05,-0.000121834,,,6.379607075,0.024942778,-15.82739553,-36.69515255,0.832788088
4.666666667,0,0,0,,,6.380595638,1.894012631,-2.481693853,-1.904712079,-0.040471666
4.666666667,0,0,0,,,6.401998156,0.298732254,-14.51428292,-31.39153852,0.675605827
4.666666667,0,0,0,,,6.416519542,0.441658854,-13.73024689,-28.64655599,0.582614105
4.670708612,2.074199601,5.22291E-05,-0.000664069,,,6.42045771,1.232533008,-8.266143543,-13.8528037,0.117149517
4.670708612,2.074199601,5.22291E-05,-0.000664069,,,6.421716266,0.495699002,-13.41662497,-27.61389476,0.547295165
4.674835641,2.006638591,6.20289E-05,-0.000661044,,,6.430921724,0.617343285,-12.6775519,-25.30116662,0.469756087
4.675663588,1.483217571,0.000102033,-0.000600414,,,6.431122599,1.868049784,-2.72856316,-2.370484138,-0.043497231
4.675663588,1.483217571,0.000102033,-0.000600414,,,6.431905125,1.382188611,-7.021964645,-11.12014318,0.040115411
4.67896267,1.93907758,7.04923E-05,-0.000656764,,,6.432336518,0.794044707,-11.52664849,-21.97382686,0.365865708
4.683089699,1.87151657,7.77465E-05,-0.000651255,,,6.436029043,1.977404719,-1.749035666,-0.406561486,-0.009749647
4.683089699,1.87151657,7.77465E-05,-0.000651255,,,6.443911627,1.194360637,-8.559788887,-14.54587799,0.129838518
4.683775927,1.303655998,0.000104508,-0.000560578,,,6.451600203,0.325304778,-14.34964491,-30.84599779,0.604036511
4.6875,2.15625,3.75111E-05,-0.000660543,,,6.451654767,0.878328372,-10.93229269,-20.38855365,0.303408885
4.691317112,1.115121344,0.000102501,-0.00050924,,,6.451808,1.831951073,-3.055871196,-3.017245948,-0.048052098
4.691812104,1.711778511,9.07725E-05,-0.00063355,,,6.455622139,1.435706231,-6.557012,-10.14588655,0.014865216
4.691812104,1.711778511,9.07725E-05,-0.00063355,,,6.456587289,0.145658952,-15.24886,-34.29692428,0.679102642
4.698287144,0.91761361,9.57094E-05,-0.000444863,,,6.463172779,0.923576983,-10.60365308,-19.54067162,0.270571986
4.698287144,0.91761361,9.57094E-05,-0.000444863,,,6.477164341,0.591143331,-12.81434984,-25.7695079,0.44199184
4.70786331,0.715304711,8.38372E-05,-0.000367357,,,6.477624362,1.724684911,-4.017953165,-4.940411461,-0.050394946
4.70786331,0.715304711,8.38372E-05,-0.000367357,,,6.47803881,1.123330314,-9.100880743,-15.84079512,0.154680235
4.713609755,0.513703755,6.71558E-05,-0.000278809,,,6.479272915,1.55341928,-5.531918218,-8.017643964,-0.024472385
4.718456213,0.310038143,4.50279E-05,-0.00017751,,,6.486363898,1.006291736,-9.986265759,-17.99715982,0.212521283
4.72098415,1.591147066,9.64876E-05,-0.000611976,,,6.493332314,0.029609818,-15.76618534,-36.51529103,0.672560683
4.72098415,1.591147066,9.64876E-05,-0.000611976,,,6.506189335,0.172231477,-15.10197111,-33.75092578,0.604822311
4.722402683,0.104307874,1.67971E-05,-6.29034E-05,,,6.512376264,0.743640282,-11.82094712,-22.87962715,0.333700906
4.722402683,0.104307874,1.67971E-05,-6.29034E-05,,,6.526658456,1.973176919,-1.820557814,-0.48234996,-0.00974102
4.72916011,1.783267235,8.4162E-05,-0.000634546,,,6.528360376,1.316103105,-7.532759999,-12.30490587,0.051190903
4.72916011,1.783267235,8.4162E-05,-0.000634546,,,6.551214301,1.930323782,-2.203592412,-1.252826593,-0.021917636
4.734211083,1.397634077,0.000101879,-0.000575147,,,6.552215394,0.061154326,-15.60670881,-35.86658541,0.58284408
4.734211083,1.397634077,0.000101879,-0.000575147,,,6.556202753,1.270788305,-7.892703932,-13.12497487,0.063870514
4.742323422,1.218072504,0.000102308,-0.000532288,,,6.556515078,1.379634401,-6.995098382,-11.14849432,0.024045149
4.742323422,1.218072504,0.000102308,-0.000532288,,,6.556826088,1.766598192,-3.64581046,-4.187674128,-0.044988236
4.749293454,1.02056477,9.81354E-05,-0.000474861,,,6.55861888,0.717440327,-11.97143484,-23.35114926,0.311427761
4.749293454,1.02056477,9.81354E-05,-0.000474861,,,6.55895854,1.545061166,-5.585558206,-8.162691168,-0.022417227
4.75,2.125,4.08132E-05,-0.000645556,,,6.565741242,0.359979874,-14.11288047,-30.11502769,0.46006154
4.75,2.125,4.08132E-05,-0.000645556,,,6.568869541,1.159272477,-8.777941051,-15.15866485,0.106114467
4.75,2.125,4.08132E-05,-0.000645556,,,6.569298188,0.840746106,-11.13454323,-21.04165647,0.247417579
4.754127029,2.05743899,5.18656E-05,-0.000644409,,,6.571630323,0.453908479,-13.58562917,-28.32248293,0.415778526
4.754127029,2.05743899,5.18656E-05,-0.000644409,,,6.576007951,0.499430926,-13.31939873,-27.45603626,0.392515833
4.758254058,1.989877979,6.13614E-05,-0.000641972,,,6.579638282,1.007879705,-9.929257367,-17.93897501,0.166994358
4.758254058,1.989877979,6.13614E-05,-0.000641972,,,6.582971334,0.894461179,-10.75161066,-20.03788687,0.215083083
4.758332155,1.66263579,9.14194E-05,-0.000615898,,,6.586275317,0.573511384,-12.87094719,-26.04924787,0.351999012
4.761254198,0.822366039,8.91007E-05,-0.000405751,,,6.592216414,0.031544507,-15.72888169,-36.41637039,0.537226219
4.761254198,0.822366039,8.91007E-05,-0.000405751,,,6.600703402,1.762620948,-3.682193107,-4.258514529,-0.040975724
4.762381087,1.922316969,6.94929E-05,-0.000638294,,,6.602835853,1.541083922,-5.610836513,-8.231677496,-0.021099621
4.762381087,1.922316969,6.94929E-05,-0.000638294,,,6.603301494,1.925602356,-2.257200014,-1.337151542,-0.020774818
4.766508116,1.854755958,7.64304E-05,-0.000633384,,,6.607942956,0.241642114,-14.72049167,-32.35941489,0.455038608
4.766508116,1.854755958,7.64304E-05,-0.000633384,,,6.608602271,1.374912976,-7.018074623,-11.22814496,0.020048204
4.766508116,1.854755958,7.64304E-05,-0.000633384,,,6.611097821,1.271230587,-7.868937308,-13.1085406,0.0530099
4.766508116,1.854755958,7.64304E-05,-0.000633384,,,6.615112157,1.159645048,-8.756589326,-15.14263637,0.092149785
4.766508116,1.854755958,7.64304E-05,-0.000633384,,,6.624193255,0.80964388,-11.32531233,-21.60320146,0.225707522
4.768445784,0.615946972,7.4908E-05,-0.000322317,,,6.625880899,1.008252275,-9.907507179,-17.92045321,0.14617984
4.768445784,0.615946972,7.4908E-05,-0.000322317,,,6.629629366,1.968455493,-1.89323733,-0.567332318,-0.00914588
4.77419223,0.414346016,5.60426E-05,-0.000229054,,,6.635342636,1.311823961,-7.530325531,-12.36803319,0.036046484
4.77419223,0.414346016,5.60426E-05,-0.000229054,,,6.637866401,0.894903461,-10.72577905,-20.01367611,0.184111519
4.7781387,0.208615747,3.13271E-05,-0.000121703,,,6.649246114,0.671148944,-12.23425465,-24.18654514,0.260974811
4.7781387,0.208615747,3.13271E-05,-0.000121703,,,6.664194274,0.843123076,-11.07943621,-20.9684238,0.188257565
4.779531644,1.505563573,9.75889E-05,-0.000589251,,,6.669269362,0.180119003,-15.01054516,-33.51373813,0.399122776
4.783333333,0,0,0,,,6.683439063,1.706028907,-4.17523,-5.270867012,-0.033482902
4.792758578,1.312050584,0.000100594,-0.00054923,,,6.685087617,1.534763277,-5.651268813,-8.341387136,-0.017538668
4.792758578,1.312050584,0.000100594,-0.00054923,,,6.694948405,1.125077924,-8.998506312,-15.76164656,0.080522102
4.795680161,1.734124513,8.53792E-05,-0.000617705,,,6.7029655,0.155176226,-15.12462596,-33.98042076,0.363628336
4.800299763,1.12351593,9.89956E-05,-0.000500762,,,6.7029655,0.026572525,-15.7272872,-36.46080536,0.390049816
4.800299763,1.12351593,9.89956E-05,-0.000500762,,,6.703273494,1.008039345,-9.882119191,-17.90834143,0.113448238
4.812260507,0.925317199,9.2544E-05,-0.000438566,,,6.708039422,1.808725064,-3.285316301,-3.43180799,-0.029025531
4.8125,2.09375,4.38902E-05,-0.000631228,,,6.711853561,1.412480222,-6.679051486,-10.541038,0.004002239
4.816627029,2.02618899,5.42005E-05,-0.000630143,,,6.713955767,1.196536344,-8.434717256,-14.4545138,0.055281846
4.820754058,1.958627979,6.29899E-05,-0.000627822,,,6.721698907,0.725327853,-11.85776529,-23.15066337,0.189388564
4.821836673,0.7230083,8.13269E-05,-0.000363803,,,6.725608179,0.367711996,-14.01822564,-29.90246954,0.285708205
4.824852206,1.613493068,9.14038E-05,-0.000598848,,,6.730217548,1.844823774,-2.975442167,-2.785494877,-0.024199706
4.824852206,1.613493068,9.14038E-05,-0.000598848,,,6.730217548,1.973427475,-1.874467525,-0.478020913,-0.005730075
4.824881087,1.891066969,7.05109E-05,-0.000624244,,,6.733216919,0.92575269,-10.47368194,-19.4210775,0.124306846
4.824881087,1.891066969,7.05109E-05,-0.000624244,,,6.734379163,1.230731471,-8.158336037,-13.82994721,0.042402184
4.829028259,0.516589233,6.49831E-05,-0.000275549,,,6.734379163,1.359335172,-7.115293557,-11.49896547,0.01371663
4.829028259,0.516589233,6.49831E-05,-0.000275549,,,6.746142255,0.581243506,-12.76908379,-25.84974283,0.210628287
4.833028166,1.805613237,7.83041E-05,-0.000617396,,,6.755395045,0.753530125,-11.66134021,-22.61619606,0.1585017
4.833028166,1.805613237,7.83041E-05,-0.000617396,,,6.755395045,0.882133826,-10.77817805,-20.22452231,0.124904492
4.833874717,0.312923621,4.37294E-05,-0.000176383,,,6.766000962,0.124643373,-15.25957621,-34.54718774,0.291008753
4.833874717,0.312923621,4.37294E-05,-0.000176383,,,6.778422812,0.463910202,-13.46235131,-28.05975146,0.20972767
4.838079139,1.419980079,9.7452E-05,-0.000565946,,,6.782800439,0.509432649,-13.19434669,-27.19683955,0.195633888
4.83906935,0.104307874,1.61711E-05,-6.20665E-05,,,6.78746969,1.875356627,-2.718550645,-2.238240547,-0.016666307
4.851306072,1.22646709,9.82915E-05,-0.000522561,,,6.790308846,1.579959025,-5.253773655,-7.527375523,-0.016774692
4.851306072,1.22646709,9.82915E-05,-0.000522561,,,6.790748144,1.285476532,-7.707136438,-12.83165088,0.022492675
4.851306072,1.22646709,9.82915E-05,-0.000522561,,,6.800169634,1.04420379,-9.587503117,-17.2297034,0.067313125
4.851306072,1.22646709,9.82915E-05,-0.000522561,,,6.807304121,0.803436948,-11.31226907,-21.67704597,0.113960716
4.851306072,1.22646709,9.82915E-05,-0.000522561,,,6.821472718,0.343194028,-14.1322622,-30.34545128,0.189189003
4.851306072,1.22646709,9.82915E-05,-0.000522561,,,6.846278565,1.64565004,-4.68985546,-6.349756522,-0.015642929
4.862200211,1.684981791,8.58888E-05,-0.000601546,,,6.847036856,0.60903258,-12.57556001,-25.3069465,0.12173366
4.863266816,1.028268359,9.44194E-05,-0.000467335,,,6.847960252,1.470942223,-6.170739025,-9.482760338,-0.004644193
4.875,2.0625,4.66675E-05,-0.000617713,,,6.850062458,1.091923321,-9.21776198,-16.35086333,0.042776978
4.875227561,0.830069628,8.59845E-05,-0.000400952,,,6.855168856,0.31825125,-14.26193063,-30.81508785,0.156619666
4.875227561,0.830069628,8.59845E-05,-0.000400952,,,6.855168856,0.026572525,-15.7069858,-36.41683461,0.189204204
4.879127029,1.99493899,5.60856E-05,-0.000616716,,,6.858554868,0.97253244,-10.10777862,-18.54139031,0.057758624
4.882419147,0.623650561,7.25761E-05,-0.000320153,,,6.868456691,1.68174875,-4.380246739,-5.703350318,-0.014252888
4.883254058,1.927377979,6.41846E-05,-0.000614512,,,6.868456691,1.973427475,-1.895312564,-0.478030801,-0.002803074
4.883254058,1.927377979,6.41846E-05,-0.000614512,,,6.870485854,1.126118449,-8.952719441,-15.72454762,0.032453871
4.883399701,1.527909574,9.25285E-05,-0.000578222,,,6.870485854,1.417797174,-6.612299498,-10.43825827,0.000220733
4.889610734,0.417231495,5.41256E-05,-0.000226938,,,6.880732994,0.637234852,-12.39341836,-24.77294796,0.091269081
4.889610734,0.417231495,5.41256E-05,-0.000226938,,,6.880732994,0.928913576,-10.4207418,-19.34368044,0.054063836
4.889610734,0.417231495,5.41256E-05,-0.000226938,,,6.883666186,0.250713255,-14.61463755,-32.10180036,0.132640566
4.889610734,0.417231495,5.41256E-05,-0.000226938,,,6.883666186,0.124643373,-15.2445461,-34.52155094,0.144194687
4.889610734,0.417231495,5.41256E-05,-0.000226938,,,6.894339473,1.749286745,-3.801969968,-4.494992641,-0.01172599
4.889610734,0.417231495,5.41256E-05,-0.000226938,,,6.894339473,1.875356627,-2.725869009,-2.238099878,-0.008368082
4.891401137,1.841924247,7.26284E-05,-0.000609346,,,6.895969373,1.204602398,-8.338039235,-14.29361816,0.018108276
4.894805367,0.208615747,3.00689E-05,-0.000120017,,,6.895969373,1.33067228,-7.326891048,-12.00900099,0.006839364
4.896626634,1.334396586,9.62155E-05,-0.000541942,,,6.904200261,0.71353151,-11.89901774,-23.34189184,0.065483354
4.896626634,1.334396586,9.62155E-05,-0.000541942,,,6.904200261,0.839601392,-11.04850133,-20.99462105,0.052554511
4.899548217,1.756470515,7.94183E-05,-0.000602179,,,6.930557441,0.466520804,-13.42528485,-27.98721451,0.065181854
4.899548217,1.756470515,7.94183E-05,-0.000602179,,,6.935754166,0.520560952,-13.10630021,-26.9647943,0.056833697
4.9,0,0,0,,,6.946931762,1.520235878,-5.751004803,-8.596031195,-0.003037279
4.914273126,1.131219519,9.47443E-05,-0.000492063,,,6.949427312,1.011187011,-9.814202107,-17.82526726,0.018455072
4.914273126,1.131219519,9.47443E-05,-0.000492063,,,6.97055846,0.436910986,-13.59429798,-28.54642856,0.028503866
4.92623387,0.933020788,8.88584E-05,-0.000432615,,,6.97055846,0.031544507,-15.67811332,-36.30782208,0.038306326
4.928720262,1.63583907,8.57428E-05,-0.000586057,,,6.973259635,1.968455493,-1.94321236,-0.567372812,-0.000678038
4.928720262,1.63583907,8.57428E-05,-0.000586057,,,6.973259635,1.563089014,-5.388854384,-7.827580131,-0.002084855
4.935810035,0.730711889,7.8361E-05,-0.000360457,,,6.973672127,1.051780385,-9.51049232,-17.08022195,0.008492416
4.9375,2.03125,4.88657E-05,-0.000605054,,,6.973672127,1.457146863,-6.279712246,-9.728945693,-0.000703174
4.941627029,1.96368899,5.74037E-05,-0.000604306,,,6.975198977,0.155176226,-15.09100965,-33.92656044,0.030142146
4.941627029,1.96368899,5.74037E-05,-0.000604306,,,6.975198977,0.31825125,-14.25290691,-30.80372806,0.026759548
4.941947195,1.442326081,9.24405E-05,-0.000556955,,,6.975755185,0.554040148,-12.90264033,-26.33146084,0.020618636
4.941947195,1.442326081,9.24405E-05,-0.000556955,,,6.975755185,0.959406626,-10.1932257,-18.77715363,0.010134001
4.943001622,0.524292822,6.29172E-05,-0.000274687,,,6.977474398,1.68174875,-4.379400164,-5.703099376,-0.002423563
4.943001622,0.524292822,6.29172E-05,-0.000274687,,,6.977474398,1.844823774,-2.987460251,-2.785109363,-0.002046549
4.949774108,1.878235257,6.65934E-05,-0.00060084,,,6.977821874,1.172222565,-8.587303033,-14.88059491,0.004530964
4.950541384,0.312923621,4.18416E-05,-0.000173853,,,6.977821874,1.335297589,-7.285025752,-11.92409913,0.001317425
4.950541384,0.312923621,4.18416E-05,-0.000173853,,,6.979576604,0.674126148,-12.15055646,-24.07522397,0.01479266
4.955736017,0.104307874,1.54622E-05,-6.12725E-05,,,6.979576604,0.837201172,-11.06036989,-21.03595244,0.011220142
4.957921188,1.792781525,7.39782E-05,-0.000595299,,,,,,,
4.961557035,1.239516889,9.37063E-05,-0.000514359,,,,,,,
4.961557035,1.239516889,9.37063E-05,-0.000514359,,,,,,,
4.966068268,1.707327793,7.9829E-05,-0.000587722,,,,,,,
4.966068268,1.707327793,7.9829E-05,-0.000587722,,,,,,,
4.977240179,1.035971948,9.01837E-05,-0.000460292,,,,,,,
4.977240179,1.035971948,9.01837E-05,-0.000460292,,,,,,,
4.987267757,1.550255576,8.69236E-05,-0.00056762,,,,,,,
4.987267757,1.550255576,8.69236E-05,-0.00056762,,,,,,,
4.989200923,0.837773217,8.24028E-05,-0.000396476,,,,,,,
4.989200923,0.837773217,8.24028E-05,-0.000396476,,,,,,,
4.99639251,0.63135415,6.98421E-05,-0.000318166,,,,,,,
4.99639251,0.63135415,6.98421E-05,-0.000318166,,,,,,,
5,2,4.9874E-05,-0.000593435,,,,,,,
5,2,4.9874E-05,-0.000593435,,,,,,,
5,2,4.9874E-05,-0.000593435,,,,,,,
5.006877597,1.347446384,9.11078E-05,-0.000532452,,,,,,,
5.007024012,0.422378827,5.20965E-05,-0.000225992,,,,,,,
5.007024012,0.422378827,5.20965E-05,-0.000225992,,,,,,,
5.00814708,1.914546268,6.01918E-05,-0.00059198,,,,,,,
5.00814708,1.914546268,6.01918E-05,-0.00059198,,,,,,,
5.011472033,0.208615747,2.86637E-05,-0.000118429,,,,,,,
5.011472033,0.208615747,2.86637E-05,-0.000118429,,,,,,,
5.016294159,1.829092536,6.82421E-05,-0.000588087,,,,,,,
5.016294159,1.829092536,6.82421E-05,-0.000588087,,,,,,,
5.016666667,0,0,0,,,,,,,
5.024441239,1.743638803,7.46061E-05,-0.000582062,,,,,,,
5.024441239,1.743638803,7.46061E-05,-0.000582062,,,,,,,
5.024524089,1.144269318,9.02207E-05,-0.000485675,,,,,,,
5.032588318,1.658185071,7.96077E-05,-0.000573981,,,,,,,
5.032588318,1.658185071,7.96077E-05,-0.000573981,,,,,,,
5.032588318,1.658185071,7.96077E-05,-0.000573981,,,,,,,
5.032588318,1.658185071,7.96077E-05,-0.000573981,,,,,,,
5.032588318,1.658185071,7.96077E-05,-0.000573981,,,,,,,
5.032588318,1.658185071,7.96077E-05,-0.000573981,,,,,,,
5.032588318,1.658185071,7.96077E-05,-0.000573981,,,,,,,
5.040207233,0.940724377,8.47098E-05,-0.000427115,,,,,,,
5.040207233,0.940724377,8.47098E-05,-0.000427115,,,,,,,
5.049783398,0.738415478,7.49831E-05,-0.000357395,,,,,,,
5.049783398,0.738415478,7.49831E-05,-0.000357395,,,,,,,
5.052198158,1.45537588,8.68643E-05,-0.00054629,,,,,,,
5.0604149,0.529440155,6.01982E-05,-0.000272735,,,,,,,
5.063577704,2,4.69467E-05,-0.000582972,,,,,,,
5.067954662,0.318070953,4.02931E-05,-0.000174042,,,,,,,
5.071724784,1.914546268,5.7342E-05,-0.000581983,,,,,,,
5.071807998,1.252566688,8.86421E-05,-0.000506793,,,,,,,
5.071807998,1.252566688,8.86421E-05,-0.000506793,,,,,,,
5.072402683,0.104307874,1.46807E-05,-6.05267E-05,,,,,,,
5.072402683,0.104307874,1.46807E-05,-6.05267E-05,,,,,,,
5.079871864,1.829092536,6.52787E-05,-0.000578807,,,,,,,
5.087491142,1.049021747,8.57844E-05,-0.000455597,,,,,,,
5.088018943,1.743638803,7.15502E-05,-0.000573424,,,,,,,
5.088018943,1.743638803,7.15502E-05,-0.000573424,,,,,,,
5.09751872,1.563305375,8.09618E-05,-0.000555939,,,,,,,
5.09751872,1.563305375,8.09618E-05,-0.000555939,,,,,,,
5.103174286,0.845476806,7.84121E-05,-0.000392408,,,,,,,
5.103174286,0.845476806,7.84121E-05,-0.000392408,,,,,,,
5.103174286,0.845476806,7.84121E-05,-0.000392408,,,,,,,
5.103174286,0.845476806,7.84121E-05,-0.000392408,,,,,,,
5.103174286,0.845476806,7.84121E-05,-0.000392408,,,,,,,
5.103174286,0.845476806,7.84121E-05,-0.000392408,,,,,,,
5.113805788,0.636501483,6.64633E-05,-0.000315257,,,,,,,
5.117128559,1.360496183,8.55681E-05,-0.000523818,,,,,,,
5.12443729,0.42752616,4.9783E-05,-0.000225202,,,,,,,
5.12443729,0.42752616,4.9783E-05,-0.000225202,,,,,,,
5.127155409,2,4.50125E-05,-0.000574181,,,,,,,
5.128885312,0.21376308,2.77204E-05,-0.000119654,,,,,,,
5.133333333,0,0,0,,,,,,,
5.133333333,0,0,0,,,,,,,
5.133333333,0,0,0,,,,,,,
5.134775051,1.157319117,8.52695E-05,-0.000479877,,,,,,,
5.135302489,1.914546268,5.47038E-05,-0.000573293,,,,,,,
5.136080322,1.663307632,7.41757E-05,-0.00056164,,,,,,,
5.136080322,1.663307632,7.41757E-05,-0.00056164,,,,,,,
5.143449568,1.829092536,6.23335E-05,-0.000570492,,,,,,,
5.143449568,1.829092536,6.23335E-05,-0.000570492,,,,,,,
5.150458195,0.953774176,8.0497E-05,-0.000423993,,,,,,,
5.150458195,0.953774176,8.0497E-05,-0.000423993,,,,,,,
5.162449121,1.468425678,8.0934E-05,-0.000536752,,,,,,,
5.162449121,1.468425678,8.0934E-05,-0.000536752,,,,,,,
5.167196676,0.743562811,7.09813E-05,-0.000353599,,,,,,,
5.167196676,0.743562811,7.09813E-05,-0.000353599,,,,,,,
5.177828178,0.534587487,5.71789E-05,-0.000271033,,,,,,,
5.182058961,1.265616486,8.32017E-05,-0.000500015,,,,,,,
5.182058961,1.265616486,8.32017E-05,-0.000500015,,,,,,,
5.18536794,0.323218286,3.85152E-05,-0.000174328,,,,,,,
5.189815962,0.109455206,1.44798E-05,-6.26927E-05,,,,,,,
5.189815962,0.109455206,1.44798E-05,-6.26927E-05,,,,,,,
5.190733113,2,4.36357E-05,-0.000566611,,,,,,,
5.191510947,1.748761364,6.61686E-05,-0.000561364,,,,,,,
5.197742105,1.062071546,8.10051E-05,-0.000451428,,,,,,,
5.197742105,1.062071546,8.10051E-05,-0.000451428,,,,,,,
5.198880193,1.914546268,5.22995E-05,-0.000565767,,,,,,,
5.198880193,1.914546268,5.22995E-05,-0.000565767,,,,,,,
5.201010724,1.568427935,7.54508E-05,-0.000545533,,,,,,,
5.222203156,0.858555711,7.40778E-05,-0.000390299,,,,,,,
5.222203156,0.858555711,7.40778E-05,-0.000390299,,,,,,,
5.227379522,1.373545982,7.97298E-05,-0.000516204,,,,,,,
5.227379522,1.373545982,7.97298E-05,-0.000516204,,,,,,,
5.231219066,0.641648815,6.27826E-05,-0.000312708,,,,,,,
5.231219066,0.641648815,6.27826E-05,-0.000312708,,,,,,,
5.239572327,1.668430192,6.87025E-05,-0.000551069,,,,,,,
5.239572327,1.668430192,6.87025E-05,-0.000551069,,,,,,,
5.241850569,0.432673492,4.72218E-05,-0.000224598,,,,,,,
5.241850569,0.432673492,4.72218E-05,-0.000224598,,,,,,,
5.245026014,1.170368915,7.99881E-05,-0.000474779,,,,,,,
5.245026014,1.170368915,7.99881E-05,-0.000474779,,,,,,,
5.24629859,0.218910412,2.65982E-05,-0.000120918,,,,,,,
5.24629859,0.218910412,2.65982E-05,-0.000120918,,,,,,,
5.246941572,1.834215096,5.74117E-05,-0.000559159,,,,,,,
5.25,0,0,0,,,,,,,
5.254310818,2,4.24798E-05,-0.000560035,,,,,,,
5.254310818,2,4.24798E-05,-0.000560035,,,,,,,
5.254310818,2,4.24798E-05,-0.000560035,,,,,,,
5.265941125,1.473548239,7.54077E-05,-0.000528017,,,,,,,
5.269487066,0.966853081,7.55444E-05,-0.000420844,,,,,,,
5.286225547,0.756641716,6.7008E-05,-0.000353,,,,,,,
5.292309924,1.278666285,7.75038E-05,-0.000494134,,,,,,,
5.292309924,1.278666285,7.75038E-05,-0.000494134,,,,,,,
5.292309924,1.278666285,7.75038E-05,-0.000494134,,,,,,,
5.292309924,1.278666285,7.75038E-05,-0.000494134,,,,,,,
5.292309924,1.278666285,7.75038E-05,-0.000494134,,,,,,,
5.292309924,1.278666285,7.75038E-05,-0.000494134,,,,,,,
5.295002951,1.753883925,6.10034E-05,-0.000551345,,,,,,,
5.295241457,0.53973482,5.39075E-05,-0.000269615,,,,,,,
5.295241457,0.53973482,5.39075E-05,-0.000269615,,,,,,,
5.302372197,1.919668828,4.84805E-05,-0.000555571,,,,,,,
5.302372197,1.919668828,4.84805E-05,-0.000555571,,,,,,,
5.302781219,0.328365618,3.65367E-05,-0.000174735,,,,,,,
5.302781219,0.328365618,3.65367E-05,-0.000174735,,,,,,,
5.304502728,1.573550496,6.99174E-05,-0.000536631,,,,,,,
5.306482628,0.109455206,1.35486E-05,-6.20247E-05,,,,,,,
5.316770975,1.075150451,7.5506E-05,-0.000447357,,,,,,,
5.324727344,2,4.1217E-05,-0.000553703,,,,,,,
5.330871526,1.378668542,7.4239E-05,-0.000508937,,,,,,,
5.330871526,1.378668542,7.4239E-05,-0.000508937,,,,,,,
5.341232027,0.871634617,6.94069E-05,-0.000388662,,,,,,,
5.341232027,0.871634617,6.94069E-05,-0.000388662,,,,,,,
5.343064331,1.673552753,6.33781E-05,-0.00054224,,,,,,,
5.343064331,1.673552753,6.33781E-05,-0.00054224,,,,,,,
5.350247937,0.654727721,5.92463E-05,-0.000313499,,,,,,,
5.350433576,1.839337657,5.29614E-05,-0.000549993,,,,,,,
5.350433576,1.839337657,5.29614E-05,-0.000549993,,,,,,,
5.359263847,0.437820825,4.44527E-05,-0.000224204,,,,,,,
5.359263847,0.437820825,4.44527E-05,-0.000224204,,,,,,,
5.359263847,0.437820825,4.44527E-05,-0.000224204,,,,,,,
5.359263847,0.437820825,4.44527E-05,-0.000224204,,,,,,,
5.359263847,0.437820825,4.44527E-05,-0.000224204,,,,,,,
5.359263847,0.437820825,4.44527E-05,-0.000224204,,,,,,,
5.362965257,0.218910412,2.481E-05,-0.000119617,,,,,,,
5.364054885,1.183447821,7.40346E-05,-0.000469927,,,,,,,
5.364054885,1.183447821,7.40346E-05,-0.000469927,,,,,,,
5.366666667,0,0,0,,,,,,,
5.369433129,1.478670799,6.98665E-05,-0.000520568,,,,,,,
5.369433129,1.478670799,6.98665E-05,-0.000520568,,,,,,,
5.372788723,1.919668828,4.64463E-05,-0.000549761,,,,,,,
5.388515936,0.979931986,7.0304E-05,-0.000418321,,,,,,,
5.395143869,2,4.00085E-05,-0.000548178,,,,,,,
5.398494956,1.759006485,5.61704E-05,-0.00054316,,,,,,,
5.398494956,1.759006485,5.61704E-05,-0.00054316,,,,,,,
5.404467861,1.300360187,7.149E-05,-0.00049066,,,,,,,
5.404467861,1.300360187,7.149E-05,-0.00049066,,,,,,,
5.405254417,0.769720621,6.27323E-05,-0.000352777,,,,,,,
5.407994732,1.578673056,6.44964E-05,-0.000529184,,,,,,,
5.407994732,1.578673056,6.44964E-05,-0.000529184,,,,,,,
5.414270327,0.552813725,5.08881E-05,-0.000271687,,,,,,,
5.414270327,0.552813725,5.08881E-05,-0.000271687,,,,,,,
5.419447885,0.328365618,3.39644E-05,-0.00017285,,,,,,,
5.419447885,0.328365618,3.39644E-05,-0.00017285,,,,,,,
5.420850102,1.839337657,5.04106E-05,-0.00054468,,,,,,,
5.423149295,0.109455206,1.25808E-05,-6.14173E-05,,,,,,,
5.435799846,1.088229356,6.97884E-05,-0.000444075,,,,,,,
5.435799846,1.088229356,6.97884E-05,-0.000444075,,,,,,,
5.443029464,1.400362444,6.79656E-05,-0.000504747,,,,,,,
5.443205248,1.919668828,4.452E-05,-0.000544712,,,,,,,
5.446556335,1.678675314,5.8305E-05,-0.000534984,,,,,,,
5.446556335,1.678675314,5.8305E-05,-0.000534984,,,,,,,
5.446556335,1.678675314,5.8305E-05,-0.000534984,,,,,,,
5.446556335,1.678675314,5.8305E-05,-0.000534984,,,,,,,
5.446556335,1.678675314,5.8305E-05,-0.000534984,,,,,,,
5.446556335,1.678675314,5.8305E-05,-0.000534984,,,,,,,
5.460260898,0.884713522,6.44842E-05,-0.000387544,,,,,,,
5.460260898,0.884713522,6.44842E-05,-0.000387544,,,,,,,
5.465560395,2,3.88055E-05,-0.000543361,,,,,,,
5.468911481,1.759006485,5.32716E-05,-0.000538318,,,,,,,
5.468911481,1.759006485,5.32716E-05,-0.000538318,,,,,,,
5.469276808,0.667806626,5.54361E-05,-0.000314575,,,,,,,
5.469276808,0.667806626,5.54361E-05,-0.000314575,,,,,,,
5.476212822,1.205141723,6.82992E-05,-0.000468175,,,,,,,
5.479631924,0.218910412,2.2964E-05,-0.000118446,,,,,,,
5.479631924,0.218910412,2.2964E-05,-0.000118446,,,,,,,
5.481591066,1.500364702,6.34953E-05,-0.000515837,,,,,,,
5.481992908,0.444940791,4.15047E-05,-0.000224791,,,,,,,
5.481992908,0.444940791,4.15047E-05,-0.000224791,,,,,,,
5.483333333,0,0,0,,,,,,,
5.491266628,1.839337657,4.79821E-05,-0.000540061,,,,,,,
5.491266628,1.839337657,4.79821E-05,-0.000540061,,,,,,,
5.507544807,0.993010892,6.48735E-05,-0.000416457,,,,,,,
5.507544807,0.993010892,6.48735E-05,-0.000416457,,,,,,,
5.513621774,1.919668828,4.26616E-05,-0.000540317,,,,,,,
5.513621774,1.919668828,4.26616E-05,-0.000540317,,,,,,,
5.516625798,1.322054089,6.54222E-05,-0.000488023,,,,,,,
5.516625798,1.322054089,6.54222E-05,-0.000488023,,,,,,,
5.520152669,1.600366959,5.82392E-05,-0.000524096,,,,,,,
5.520152669,1.600366959,5.82392E-05,-0.000524096,,,,,,,
5.524283288,0.782799527,5.82275E-05,-0.000352964,,,,,,,
5.524283288,0.782799527,5.82275E-05,-0.000352964,,,,,,,
5.535976921,2,3.75766E-05,-0.000539157,,,,,,,
5.535976921,2,3.75766E-05,-0.000539157,,,,,,,
5.535976921,2,3.75766E-05,-0.000539157,,,,,,,
5.536999388,0.559933691,4.71476E-05,-0.000271504,,,,,,,
5.539815962,0.109455206,1.15893E-05,-6.08712E-05,,,,,,,
5.539815962,0.109455206,1.15893E-05,-6.08712E-05,,,,,,,
5.540719205,1.701470135,5.31298E-05,-0.000530769,,,,,,,
5.540719205,1.701470135,5.31298E-05,-0.000530769,,,,,,,
5.542176946,0.335485585,3.1748E-05,-0.000174423,,,,,,,
5.547957783,1.109923258,6.43665E-05,-0.000443899,,,,,,,
5.555187401,1.422056347,6.17647E-05,-0.000501544,,,,,,,
5.563074351,1.781801307,4.8475E-05,-0.000533869,,,,,,,
5.579289768,0.897792427,5.9392E-05,-0.000386966,,,,,,,
5.579289768,0.897792427,5.9392E-05,-0.000386966,,,,,,,
5.579289768,0.897792427,5.9392E-05,-0.000386966,,,,,,,
5.579289768,0.897792427,5.9392E-05,-0.000386966,,,,,,,
5.579289768,0.897792427,5.9392E-05,-0.000386966,,,,,,,
5.579289768,0.897792427,5.9392E-05,-0.000386966,,,,,,,
5.585429498,1.862132478,4.37321E-05,-0.000535422,,,,,,,
5.588370759,1.226835625,6.25002E-05,-0.000467101,,,,,,,
5.592005869,0.674926592,5.10022E-05,-0.000313719,,,,,,,
5.593749003,1.522058604,5.73395E-05,-0.000512218,,,,,,,
5.593749003,1.522058604,5.73395E-05,-0.000512218,,,,,,,
5.6,0,0,0,,,,,,,
5.6,0,0,0,,,,,,,
5.6,0,0,0,,,,,,,
5.602360985,0.226030378,2.15926E-05,-0.000120915,,,,,,,
5.604721969,0.452060757,3.83975E-05,-0.000225608,,,,,,,
5.604721969,0.452060757,3.83975E-05,-0.000225608,,,,,,,
5.607784644,1.94246365,3.91046E-05,-0.000535492,,,,,,,
5.607784644,1.94246365,3.91046E-05,-0.000535492,,,,,,,
5.613967894,2,3.61669E-05,-0.000535118,,,,,,,
5.614315539,1.62316178,5.30934E-05,-0.000521143,,,,,,,
5.619702744,1.014704794,5.98011E-05,-0.000417731,,,,,,,
5.619702744,1.014704794,5.98011E-05,-0.000417731,,,,,,,
5.628783735,1.343747992,5.94114E-05,-0.000486208,,,,,,,
5.628783735,1.343747992,5.94114E-05,-0.000486208,,,,,,,
5.634882075,1.724264957,4.83153E-05,-0.000527378,,,,,,,
5.634882075,1.724264957,4.83153E-05,-0.000527378,,,,,,,
5.647012349,0.789919493,5.32081E-05,-0.000351545,,,,,,,
5.647012349,0.789919493,5.32081E-05,-0.000351545,,,,,,,
5.657237221,1.804596128,4.40902E-05,-0.000530237,,,,,,,
5.65972845,0.567053658,4.32745E-05,-0.000271652,,,,,,,
5.66011572,1.131617161,5.88701E-05,-0.000444261,,,,,,,
5.66011572,1.131617161,5.88701E-05,-0.000444261,,,,,,,
5.662545023,0.116575172,1.11825E-05,-6.41545E-05,,,,,,,
5.662545023,0.116575172,1.11825E-05,-6.41545E-05,,,,,,,
5.664906008,0.342605551,2.93897E-05,-0.000176136,,,,,,,
5.667345338,1.443750249,5.5737E-05,-0.000499262,,,,,,,
5.667345338,1.443750249,5.5737E-05,-0.000499262,,,,,,,
5.679592367,1.8849273,3.98985E-05,-0.000531561,,,,,,,
5.679592367,1.8849273,3.98985E-05,-0.000531561,,,,,,,
5.685775618,1.94246365,3.72514E-05,-0.000531991,,,,,,,
5.687911873,1.544853425,5.22629E-05,-0.000510433,,,,,,,
5.691958868,2,3.4693E-05,-0.000531645,,,,,,,
5.700528696,1.248529527,5.67291E-05,-0.000466685,,,,,,,
5.700528696,1.248529527,5.67291E-05,-0.000466685,,,,,,,
5.708478409,1.645956602,4.82379E-05,-0.000518869,,,,,,,
5.71473493,0.682046558,4.64741E-05,-0.000313296,,,,,,,
5.71473493,0.682046558,4.64741E-05,-0.000313296,,,,,,,
5.716666667,0,0,0,,,,,,,
5.716937112,0.921591711,5.35686E-05,-0.000389422,,,,,,,
5.716937112,0.921591711,5.35686E-05,-0.000389422,,,,,,,
5.725090046,0.233150345,2.00883E-05,-0.000123444,,,,,,,
5.725090046,0.233150345,2.00883E-05,-0.000123444,,,,,,,
5.727451031,0.459180723,3.51735E-05,-0.000226657,,,,,,,
5.727451031,0.459180723,3.51735E-05,-0.000226657,,,,,,,
5.729044944,1.747059778,4.38485E-05,-0.000524679,,,,,,,
5.729044944,1.747059778,4.38485E-05,-0.000524679,,,,,,,
5.740941672,1.365441894,5.35384E-05,-0.000485153,,,,,,,
5.740941672,1.365441894,5.35384E-05,-0.000485153,,,,,,,
5.740941672,1.365441894,5.35384E-05,-0.000485153,,,,,,,
5.740941672,1.365441894,5.35384E-05,-0.000485153,,,,,,,
5.740941672,1.365441894,5.35384E-05,-0.000485153,,,,,,,
5.740941672,1.365441894,5.35384E-05,-0.000485153,,,,,,,
5.751400091,1.82739095,4.00659E-05,-0.00052727,,,,,,,
5.751400091,1.82739095,4.00659E-05,-0.00052727,,,,,,,
5.757350088,1.038504077,5.34353E-05,-0.000419166,,,,,,,
5.757583341,1.8849273,3.76981E-05,-0.000528528,,,,,,,
5.761508208,1.46654507,5.07601E-05,-0.000498563,,,,,,,
5.761508208,1.46654507,5.07601E-05,-0.000498563,,,,,,,
5.763766592,1.94246365,3.53727E-05,-0.000528991,,,,,,,
5.769949842,2,3.31447E-05,-0.000528664,,,,,,,
5.77921169,0.116575172,1.01168E-05,-6.37029E-05,,,,,,,
5.782074743,1.567648247,4.74203E-05,-0.000509204,,,,,,,
5.782074743,1.567648247,4.74203E-05,-0.000509204,,,,,,,
5.782457511,0.574173624,3.93169E-05,-0.000272124,,,,,,,
5.782457511,0.574173624,3.93169E-05,-0.000272124,,,,,,,
5.784659693,0.813718776,4.79645E-05,-0.000355563,,,,,,,
5.787635069,0.349725517,2.69213E-05,-0.000177995,,,,,,,
5.787635069,0.349725517,2.69213E-05,-0.000177995,,,,,,,
5.797763064,1.155416444,5.21297E-05,-0.000444812,,,,,,,
5.802641279,1.668751423,4.36698E-05,-0.00051717,,,,,,,
5.802641279,1.668751423,4.36698E-05,-0.00051717,,,,,,,
5.823207814,1.7698546,3.96964E-05,-0.000522545,,,,,,,
5.823207814,1.7698546,3.96964E-05,-0.000522545,,,,,,,
5.823207814,1.7698546,3.96964E-05,-0.000522545,,,,,,,
5.823207814,1.7698546,3.96964E-05,-0.000522545,,,,,,,
5.823207814,1.7698546,3.96964E-05,-0.000522545,,,,,,,
5.823207814,1.7698546,3.96964E-05,-0.000522545,,,,,,,
5.829391065,1.82739095,3.75935E-05,-0.000524647,,,,,,,
5.829391065,1.82739095,3.75935E-05,-0.000524647,,,,,,,
5.833333333,0,0,0,,,,,,,
5.835574315,1.8849273,3.54988E-05,-0.000525937,,,,,,,
5.835574315,1.8849273,3.54988E-05,-0.000525937,,,,,,,
5.83817604,1.27232881,4.98026E-05,-0.000466494,,,,,,,
5.83817604,1.27232881,4.98026E-05,-0.000466494,,,,,,,
5.841756713,0.233150345,1.80903E-05,-0.00012261,,,,,,,
5.841757566,1.94246365,3.34573E-05,-0.000526424,,,,,,,
5.841757566,1.94246365,3.34573E-05,-0.000526424,,,,,,,
5.847940816,2,3.15166E-05,-0.000526109,,,,,,,
5.847940816,2,3.15166E-05,-0.000526109,,,,,,,
5.849302679,1.417790802,4.7565E-05,-0.000489264,,,,,,,
5.849302679,1.417790802,4.7565E-05,-0.000489264,,,,,,,
5.850180092,0.466300689,3.18699E-05,-0.000227936,,,,,,,
5.850180092,0.466300689,3.18699E-05,-0.000227936,,,,,,,
5.850180092,0.466300689,3.18699E-05,-0.000227936,,,,,,,
5.850180092,0.466300689,3.18699E-05,-0.000227936,,,,,,,
5.850180092,0.466300689,3.18699E-05,-0.000227936,,,,,,,
5.850180092,0.466300689,3.18699E-05,-0.000227936,,,,,,,
5.852382274,0.705845842,4.18803E-05,-0.000318773,,,,,,,
5.854584457,0.945390994,4.76385E-05,-0.000392399,,,,,,,
5.854584457,0.945390994,4.76385E-05,-0.000392399,,,,,,,
5.869869214,1.518893978,4.47283E-05,-0.000501318,,,,,,,
5.89043575,1.619997155,4.14984E-05,-0.000510681,,,,,,,
5.894997433,1.062303361,4.70706E-05,-0.000421245,,,,,,,
5.895878356,0.116575172,9.05921E-06,-6.33101E-05,,,,,,,
5.904301735,0.349725517,2.41163E-05,-0.000176854,,,,,,,
5.904301735,0.349725517,2.41163E-05,-0.000176854,,,,,,,
5.911002285,1.721100331,3.80357E-05,-0.000517427,,,,,,,
5.911002285,1.721100331,3.80357E-05,-0.000517427,,,,,,,
5.915771242,1.82739095,3.48762E-05,-0.000522195,,,,,,,
5.915771242,1.82739095,3.48762E-05,-0.000522195,,,,,,,
5.920104855,0.597972907,3.54452E-05,-0.000278972,,,,,,,
5.920104855,0.597972907,3.54452E-05,-0.000278972,,,,,,,
5.921954493,1.8849273,3.30497E-05,-0.000523513,,,,,,,
5.922307038,0.837518059,4.25807E-05,-0.000359947,,,,,,,
5.928137743,1.94246365,3.12837E-05,-0.000524018,,,,,,,
5.934320994,2,2.96192E-05,-0.000523711,,,,,,,
5.935410409,1.179215727,4.55039E-05,-0.000446114,,,,,,,
5.935410409,1.179215727,4.55039E-05,-0.000446114,,,,,,,
5.946537047,1.324677719,4.42192E-05,-0.000472592,,,,,,,
5.95,0,0,0,,,,,,,
5.957663685,1.47013971,4.17877E-05,-0.000493269,,,,,,,
5.957663685,1.47013971,4.17877E-05,-0.000493269,,,,,,,
5.958423379,0.233150345,1.61127E-05,-0.000121895,,,,,,,
5.958423379,0.233150345,1.61127E-05,-0.000121895,,,,,,,
5.978230221,1.571242887,3.90167E-05,-0.000504019,,,,,,,
5.97912483,0.467059013,2.80475E-05,-0.000226747,,,,,,,
5.97912483,0.467059013,2.80475E-05,-0.000226747,,,,,,,
5.990029619,0.729645125,3.71104E-05,-0.000324485,,,,,,,
5.990029619,0.729645125,3.71104E-05,-0.000324485,,,,,,,
5.992231801,0.969190277,4.16862E-05,-0.000395856,,,,,,,
5.992231801,0.969190277,4.16862E-05,-0.000395856,,,,,,,
5.998796757,1.672346063,3.60053E-05,-0.000512131,,,,,,,
5.998796757,1.672346063,3.60053E-05,-0.000512131,,,,,,,
6.003565714,1.778636681,3.33153E-05,-0.000518227,,,,,,,
6.008334671,1.8849273,3.05764E-05,-0.00052149,,,,,,,
6.008334671,1.8849273,3.05764E-05,-0.00052149,,,,,,,
6.012545023,0.116575172,8.0165E-06,-6.29726E-05,,,,,,,
6.012545023,0.116575172,8.0165E-06,-6.29726E-05,,,,,,,
6.014517921,1.94246365,2.90502E-05,-0.000522008,,,,,,,
6.020701171,2,2.76232E-05,-0.000521704,,,,,,,
6.032644777,1.086102644,4.07819E-05,-0.000423895,,,,,,,
6.032644777,1.086102644,4.07819E-05,-0.000423895,,,,,,,
6.033246473,0.350483841,2.1095E-05,-0.000176137,,,,,,,
6.043771415,1.231564635,4.03132E-05,-0.000454096,,,,,,,
6.049049593,0.598731231,3.09165E-05,-0.000277569,,,,,,,
6.054898054,1.377026627,3.8746E-05,-0.00047845,,,,,,,
6.059954382,0.861317343,3.71275E-05,-0.000364672,,,,,,,
6.059954382,0.861317343,3.71275E-05,-0.000364672,,,,,,,
6.066024692,1.522488618,3.62749E-05,-0.000497116,,,,,,,
6.066024692,1.522488618,3.62749E-05,-0.000497116,,,,,,,
6.066666667,0,0,0,,,,,,,
6.066666667,0,0,0,,,,,,,
6.066666667,0,0,0,,,,,,,
6.086591228,1.623591795,3.36643E-05,-0.000506587,,,,,,,
6.086591228,1.623591795,3.36643E-05,-0.000506587,,,,,,,
6.087368117,0.233908668,1.40035E-05,-0.000121599,,,,,,,
6.091360185,1.729882413,3.13933E-05,-0.000514024,,,,,,,
6.096129142,1.836173032,2.90337E-05,-0.000518598,,,,,,,
6.100898099,1.94246365,2.67544E-05,-0.000520336,,,,,,,
6.100898099,1.94246365,2.67544E-05,-0.000520336,,,,,,,
6.107081349,2,2.55312E-05,-0.000520033,,,,,,,
6.108069568,0.467817336,2.42822E-05,-0.00022583,,,,,,,
6.108069568,0.467817336,2.42822E-05,-0.00022583,,,,,,,
6.118974356,0.730403448,3.2046E-05,-0.000322972,,,,,,,
6.129879145,0.99298956,3.57707E-05,-0.000399731,,,,,,,
6.129879145,0.99298956,3.57707E-05,-0.000399731,,,,,,,
6.129879145,0.99298956,3.57707E-05,-0.000399731,,,,,,,
6.129879145,0.99298956,3.57707E-05,-0.000399731,,,,,,,
6.129879145,0.99298956,3.57707E-05,-0.000399731,,,,,,,
6.129879145,0.99298956,3.57707E-05,-0.000399731,,,,,,,
6.129879145,0.99298956,3.57707E-05,-0.000399731,,,,,,,
6.141005784,1.138451552,3.5983E-05,-0.000433675,,,,,,,
6.141005784,1.138451552,3.5983E-05,-0.000433675,,,,,,,
6.141489761,0.117333496,6.93013E-06,-6.30527E-05,,,,,,,
6.141489761,0.117333496,6.93013E-06,-6.30527E-05,,,,,,,
6.152132422,1.283913543,3.51569E-05,-0.000461727,,,,,,,
6.152132422,1.283913543,3.51569E-05,-0.000461727,,,,,,,
6.162191211,0.351242164,1.8122E-05,-0.000175609,,,,,,,
6.16325906,1.429375535,3.3448E-05,-0.000484033,,,,,,,
6.16325906,1.429375535,3.3448E-05,-0.000484033,,,,,,,
6.174385699,1.574837526,3.10626E-05,-0.000500736,,,,,,,
6.174385699,1.574837526,3.10626E-05,-0.000500736,,,,,,,
6.174385699,1.574837526,3.10626E-05,-0.000500736,,,,,,,
6.174385699,1.574837526,3.10626E-05,-0.000500736,,,,,,,
6.174385699,1.574837526,3.10626E-05,-0.000500736,,,,,,,
6.174385699,1.574837526,3.10626E-05,-0.000500736,,,,,,,
6.177994331,0.599489554,2.64726E-05,-0.000276496,,,,,,,
6.179154656,1.681128145,2.91653E-05,-0.000509521,,,,,,,
6.179154656,1.681128145,2.91653E-05,-0.000509521,,,,,,,
6.183333333,0,0,0,,,,,,,
6.183923613,1.787418763,2.71517E-05,-0.000515422,,,,,,,
6.183923613,1.787418763,2.71517E-05,-0.000515422,,,,,,,
6.18869257,1.893709382,2.51609E-05,-0.000518462,,,,,,,
6.18869257,1.893709382,2.51609E-05,-0.000518462,,,,,,,
6.18889912,0.862075666,3.16988E-05,-0.000363144,,,,,,,
6.18889912,0.862075666,3.16988E-05,-0.000363144,,,,,,,
6.193461527,2,2.33482E-05,-0.000518648,,,,,,,
6.193461527,2,2.33482E-05,-0.000518648,,,,,,,
6.193461527,2,2.33482E-05,-0.000518648,,,,,,,
6.216312855,0.234666992,1.19286E-05,-0.000121419,,,,,,,
6.216312855,0.234666992,1.19286E-05,-0.000121419,,,,,,,
6.237014305,0.46857566,2.05878E-05,-0.000225152,,,,,,,
6.237014305,0.46857566,2.05878E-05,-0.000225152,,,,,,,
6.243081082,1.074929973,3.12781E-05,-0.00041815,,,,,,,
6.243081082,1.074929973,3.12781E-05,-0.00041815,,,,,,,
6.247919094,0.731161772,2.70925E-05,-0.000321832,,,,,,,
6.247919094,0.731161772,2.70925E-05,-0.000321832,,,,,,,
6.25133552,0.958884633,3.01878E-05,-0.000389327,,,,,,,
6.25133552,0.958884633,3.01878E-05,-0.000389327,,,,,,,
6.25420772,1.220391964,3.08859E-05,-0.00044873,,,,,,,
6.258156428,0.117333496,5.92636E-06,-6.28168E-05,,,,,,,
6.265334358,1.365853956,2.96834E-05,-0.000473539,,,,,,,
6.274826433,1.681128145,2.57046E-05,-0.000508281,,,,,,,
6.274826433,1.681128145,2.57046E-05,-0.000508281,,,,,,,
6.276460997,1.511315947,2.78431E-05,-0.00049271,,,,,,,
6.276460997,1.511315947,2.78431E-05,-0.00049271,,,,,,,
6.27959539,1.787418763,2.39989E-05,-0.000514195,,,,,,,
6.284364347,1.893709382,2.23305E-05,-0.000517234,,,,,,,
6.289133304,2,2.08321E-05,-0.000517398,,,,,,,
6.291135949,0.352000488,1.52057E-05,-0.000175249,,,,,,,
6.291135949,0.352000488,1.52057E-05,-0.000175249,,,,,,,
6.3,0,0,0,,,,,,,
6.306939069,0.600247878,2.21222E-05,-0.000275709,,,,,,,
6.306939069,0.600247878,2.21222E-05,-0.000275709,,,,,,,
6.310355494,0.827970739,2.62563E-05,-0.000351767,,,,,,,
6.332979522,0.234666992,1.00585E-05,-0.000121019,,,,,,,
6.356283018,1.156870385,2.65077E-05,-0.000434949,,,,,,,
6.356283018,1.156870385,2.65077E-05,-0.000434949,,,,,,,
6.364537456,1.040825045,2.58886E-05,-0.000408846,,,,,,,
6.365959043,0.469333984,1.69693E-05,-0.000224683,,,,,,,
6.365959043,0.469333984,1.69693E-05,-0.000224683,,,,,,,
6.365959043,0.469333984,1.69693E-05,-0.000224683,,,,,,,
6.365959043,0.469333984,1.69693E-05,-0.000224683,,,,,,,
6.365959043,0.469333984,1.69693E-05,-0.000224683,,,,,,,
6.365959043,0.469333984,1.69693E-05,-0.000224683,,,,,,,
6.367409656,1.302332376,2.57185E-05,-0.000462268,,,,,,,
6.369375469,0.697056844,2.19393E-05,-0.000309438,,,,,,,
6.372791894,0.924779705,2.4789E-05,-0.000378997,,,,,,,
6.372791894,0.924779705,2.4789E-05,-0.000378997,,,,,,,
6.374823094,0.117333496,4.94625E-06,-6.26235E-05,,,,,,,
6.375267168,1.787418763,2.08399E-05,-0.000513222,,,,,,,
6.375267168,1.787418763,2.08399E-05,-0.000513222,,,,,,,
6.376901731,1.617606565,2.27622E-05,-0.000502291,,,,,,,
6.378536294,1.447794368,2.43392E-05,-0.000483915,,,,,,,
6.378536294,1.447794368,2.43392E-05,-0.000483915,,,,,,,
6.380036125,1.893709382,1.94528E-05,-0.000516258,,,,,,,
6.384805082,2,1.82226E-05,-0.000516402,,,,,,,
6.407802616,0.352000488,1.25972E-05,-0.000174748,,,,,,,
6.407802616,0.352000488,1.25972E-05,-0.000174748,,,,,,,
6.416666667,0,0,0,,,,,,,
6.428395443,0.56614295,1.74105E-05,-0.000262253,,,,,,,
6.428395443,0.56614295,1.74105E-05,-0.000262253,,,,,,,
6.431811869,0.793865811,2.1051E-05,-0.000340399,,,,,,,
6.449646188,0.234666992,8.22966E-06,-0.000120698,,,,,,,
6.449646188,0.234666992,8.22966E-06,-0.000120698,,,,,,,
6.469484954,1.238810797,2.16106E-05,-0.000450163,,,,,,,
6.469484954,1.238810797,2.16106E-05,-0.000450163,,,,,,,
6.475707902,1.893709382,1.65313E-05,-0.000515494,,,,,,,
6.475707902,1.893709382,1.65313E-05,-0.000515494,,,,,,,
6.477342466,1.723897184,1.80615E-05,-0.000509201,,,,,,,
6.477739392,1.122765457,2.1312E-05,-0.000426704,,,,,,,
6.478977029,1.554084986,1.95194E-05,-0.000495495,,,,,,,
6.480476859,2,1.55302E-05,-0.00051562,,,,,,,
6.480611592,1.384272789,2.06107E-05,-0.000474295,,,,,,,
6.480611592,1.384272789,2.06107E-05,-0.000474295,,,,,,,
6.485993831,1.006720117,2.06382E-05,-0.000399557,,,,,,,
6.490831843,0.662951917,1.70775E-05,-0.000296993,,,,,,,
6.490831843,0.662951917,1.70775E-05,-0.000296993,,,,,,,
6.491489761,0.117333496,3.98878E-06,-6.24693E-05,,,,,,,
6.491489761,0.117333496,3.98878E-06,-6.24693E-05,,,,,,,
6.494248269,0.890674777,1.95807E-05,-0.000368661,,,,,,,
6.494248269,0.890674777,1.95807E-05,-0.000368661,,,,,,,
6.524469283,0.477000488,1.27543E-05,-0.000227073,,,,,,,
6.524469283,0.477000488,1.27543E-05,-0.000227073,,,,,,,
6.533333333,0,0,0,,,,,,,
6.533333333,0,0,0,,,,,,,
6.533333333,0,0,0,,,,,,,
6.553268243,0.759760883,1.60898E-05,-0.000328973,,,,,,,
6.553268243,0.759760883,1.60898E-05,-0.000328973,,,,,,,
6.566312855,0.359666992,9.30055E-06,-0.00017761,,,,,,,
6.576148637,2,1.27667E-05,-0.000515015,,,,,,,
6.576148637,2,1.27667E-05,-0.000515015,,,,,,,
6.576148637,2,1.27667E-05,-0.000515015,,,,,,,
6.576148637,2,1.27667E-05,-0.000515015,,,,,,,
6.5777832,1.830187802,1.38135E-05,-0.000513398,,,,,,,
6.5777832,1.830187802,1.38135E-05,-0.000513398,,,,,,,
6.579417764,1.660375605,1.49895E-05,-0.000504345,,,,,,,
6.579417764,1.660375605,1.49895E-05,-0.000504345,,,,,,,
6.581052327,1.490563407,1.60271E-05,-0.000487842,,,,,,,
6.581052327,1.490563407,1.60271E-05,-0.000487842,,,,,,,
6.58268689,1.320751209,1.67112E-05,-0.000463803,,,,,,,
6.58268689,1.320751209,1.67112E-05,-0.000463803,,,,,,,
6.58268689,1.320751209,1.67112E-05,-0.000463803,,,,,,,
6.58268689,1.320751209,1.67112E-05,-0.000463803,,,,,,,
6.58268689,1.320751209,1.67112E-05,-0.000463803,,,,,,,
6.58268689,1.320751209,1.67112E-05,-0.000463803,,,,,,,
6.586905682,0.573809454,1.25835E-05,-0.000264421,,,,,,,
6.590941328,1.204705869,1.65966E-05,-0.000442931,,,,,,,
6.590941328,1.204705869,1.65966E-05,-0.000442931,,,,,,,
6.599195767,1.088660529,1.62064E-05,-0.000418422,,,,,,,
6.599195767,1.088660529,1.62064E-05,-0.000418422,,,,,,,
6.607450205,0.972615189,1.55302E-05,-0.000390217,,,,,,,
6.607450205,0.972615189,1.55302E-05,-0.000390217,,,,,,,
6.608156428,0.242333496,5.97322E-06,-0.00012402,,,,,,,
6.615704643,0.85656985,1.45667E-05,-0.000358256,,,,,,,
6.615704643,0.85656985,1.45667E-05,-0.000358256,,,,,,,
6.615704643,0.85656985,1.45667E-05,-0.000358256,,,,,,,
6.615704643,0.85656985,1.45667E-05,-0.000358256,,,,,,,
6.615704643,0.85656985,1.45667E-05,-0.000358256,,,,,,,
6.649342082,0.670618421,1.17471E-05,-0.000298979,,,,,,,
6.65,0.125,2.88849E-06,-6.62374E-05,,,,,,,
6.65,0.125,2.88849E-06,-6.62374E-05,,,,,,,
6.65,0,0,0,,,,,,,
6.682111478,2,9.63827E-06,-0.000514525,,,,,,,
6.682111478,1.875,1.01947E-05,-0.000514087,,,,,,,
6.682111478,1.875,1.01947E-05,-0.000514087,,,,,,,
6.682979522,0.484666992,8.53896E-06,-0.000229667,,,,,,,
6.682979522,0.484666992,8.53896E-06,-0.000229667,,,,,,,
6.683746041,1.705187802,1.10251E-05,-0.000507008,,,,,,,
6.685380604,1.535375605,1.18073E-05,-0.000492475,,,,,,,
6.687015168,1.365563407,1.23714E-05,-0.000470429,,,,,,,
6.687015168,1.240563407,1.26183E-05,-0.000449338,,,,,,,
6.687015168,1.240563407,1.26183E-05,-0.000449338,,,,,,,
6.687015168,1.365563407,1.23714E-05,-0.000470429,,,,,,,
6.695269606,1.124518067,1.23073E-05,-0.000425974,,,,,,,
6.703524044,1.008472727,1.17854E-05,-0.000398937,,,,,,,
6.711778482,0.892427387,1.10532E-05,-0.00036817,,,,,,,
6.711778482,0.892427387,1.10532E-05,-0.00036817,,,,,,,
6.711778482,0.767427387,1.03607E-05,-0.000330807,,,,,,,
6.711778482,0.767427387,1.03607E-05,-0.000330807,,,,,,,
6.724823094,0.367333496,5.96193E-06,-0.000180616,,,,,,,
6.745415922,0.581475958,7.774E-06,-0.00026682,,,,,,,
6.766666667,0.25,3.6326E-06,-0.000127428,,,,,,,
6.766666667,0,0,0,,,,,,,
6.766666667,0.125,1.91625E-06,-6.61587E-05,,,,,,,
6.766666667,0.25,3.6326E-06,-0.000127428,,,,,,,
6.788074318,1.75,7.23127E-06,-0.000509297,,,,,,,
6.788074318,2,6.4559E-06,-0.000514193,,,,,,,
6.788074318,1.75,7.23127E-06,-0.000509297,,,,,,,
6.788074318,1.875,6.81207E-06,-0.000513773,,,,,,,
6.789708882,1.580187802,7.742E-06,-0.000496735,,,,,,,
6.791343445,1.410375605,8.13594E-06,-0.000476677,,,,,,,
6.791343445,1.285375605,8.34467E-06,-0.00045707,,,,,,,
6.791343445,1.160375605,8.41257E-06,-0.000433294,,,,,,,
6.791343445,1.160375605,8.41257E-06,-0.000433294,,,,,,,
6.791343445,1.410375605,8.13594E-06,-0.000476677,,,,,,,
6.799597883,1.044330265,7.99786E-06,-0.000407413,,,,,,,
6.807852322,0.928284925,7.44668E-06,-0.000377823,,,,,,,
6.807852322,0.928284925,7.44668E-06,-0.000377823,,,,,,,
6.807852322,0.678284925,6.44592E-06,-0.000301213,,,,,,,
6.807852322,0.678284925,6.44592E-06,-0.000301213,,,,,,,
6.807852322,0.803284925,7.03856E-06,-0.000341747,,,,,,,
6.841489761,0.492333496,4.29868E-06,-0.000232443,,,,,,,
6.841489761,0.492333496,4.29868E-06,-0.000232443,,,,,,,
6.883333333,0.375,2.56028E-06,-0.000183757,,,,,,,
6.883333333,0.125,9.55179E-07,-6.61122E-05,,,,,,,
6.883333333,0.25,1.81111E-06,-0.000127341,,,,,,,
6.883333333,0.375,2.56028E-06,-0.000183757,,,,,,,
6.883333333,0,0,0,,,,,,,
6.894037159,1.875,3.4107E-06,-0.000513593,,,,,,,
6.894037159,2,3.23718E-06,-0.000514002,,,,,,,
6.894037159,1.625,3.82645E-06,-0.000500602,,,,,,,
6.894037159,1.625,3.82645E-06,-0.000500602,,,,,,,
6.894037159,1.75,3.61634E-06,-0.00050912,,,,,,,
6.895671723,1.205187802,4.19508E-06,-0.000442123,,,,,,,
6.895671723,1.330187802,4.13527E-06,-0.000464398,,,,,,,
6.895671723,1.455187802,4.01046E-06,-0.000482527,,,,,,,
6.895671723,1.080187802,4.17715E-06,-0.000415638,,,,,,,
6.895671723,1.455187802,4.01046E-06,-0.000482527,,,,,,,
6.895671723,1.080187802,4.17715E-06,-0.000415638,,,,,,,
6.903926161,0.714142462,3.31183E-06,-0.000313173,,,,,,,
6.903926161,0.589142462,2.94895E-06,-0.000269423,,,,,,,
6.903926161,0.964142462,3.75892E-06,-0.000387214,,,,,,,
6.903926161,0.964142462,3.75892E-06,-0.000387214,,,,,,,
6.903926161,0.589142462,2.94895E-06,-0.000269423,,,,,,,
6.903926161,0.839142462,3.58099E-06,-0.000352409,,,,,,,
7,0.5,0,-0.000235386,,,,,,,
7,0.5,0,-0.000235386,,,,,,,
7,0.75,0,-0.000324843,,,,,,,
7,0.625,0,-0.0002824,,,,,,,
7,1.5,0,-0.00048797,,,,,,,
7,1,0,-0.000396343,,,,,,,
7,0.875,0,-0.000362796,,,,,,,
7,0.5,0,-0.000235386,,,,,,,
7,0.375,0,-0.000183717,,,,,,,
7,2,0,-0.00051394,,,,,,,
7,1.5,0,-0.00048797,,,,,,,
7,0.5,0,-0.000235386,,,,,,,
7,0,0,0,,,,,,,
7,0.125,0,-6.60968E-05,,,,,,,
7,0.25,0,-0.000127312,,,,,,,
7,1.75,0,-0.000509063,,,,,,,
7,1,0,-0.000396343,,,,,,,
7,1.25,0,-0.00045053,,,,,,,
7,1.5,0,-0.00048797,,,,,,,
7,1,0,-0.000396343,,,,,,,
7,1.125,0,-0.000425563,,,,,,,
7,1.375,0,-0.000471314,,,,,,,
7,1.875,0,-0.000513534,,,,,,,
7,1.625,0,-0.000500544,,,,,,,
